      56
Lattice="11.540      0.000      0.000      0.000     11.540      0.000      0.000      0.000     35.000" Properties="species:S:1:pos:R:3" Step=0 Time=0.000 Energy=-1228.1783321604
 Au         0.0000000000        0.0000000000       10.0000000000
 Au         2.8800000000        0.0000000000       10.0000000000
 Au         5.7700000000        0.0000000000       10.0000000000
 Au         8.6500000000        0.0000000000       10.0000000000
 Au         0.0000000000        2.8800000000       10.0000000000
 Au         2.8800000000        2.8800000000       10.0000000000
 Au         5.7700000000        2.8800000000       10.0000000000
 Au         8.6500000000        2.8800000000       10.0000000000
 Au         0.0000000000        5.7700000000       10.0000000000
 Au         2.8800000000        5.7700000000       10.0000000000
 Au         5.7700000000        5.7700000000       10.0000000000
 Au         8.6500000000        5.7700000000       10.0000000000
 Au         0.0000000000        8.6500000000       10.0000000000
 Au         2.8800000000        8.6500000000       10.0000000000
 Au         5.7700000000        8.6500000000       10.0000000000
 Au         8.6500000000        8.6500000000       10.0000000000
 Ne         0.0000000000        0.0000000000       25.0000000000
 Ne         3.1300000000        0.0000000000       25.0000000000
 Ne         6.2600000000        0.0000000000       25.0000000000
 Ne         9.4000000000        0.0000000000       25.0000000000
 Ne         0.0000000000        3.1300000000       25.0000000000
 Ne         3.1300000000        3.1300000000       25.0000000000
 Ne         6.2600000000        3.1300000000       25.0000000000
 Ne         9.4000000000        3.1300000000       25.0000000000
 Ne         0.0000000000        6.2600000000       25.0000000000
 Ne         3.1300000000        6.2600000000       25.0000000000
 Ne         6.2600000000        6.2600000000       25.0000000000
 Ne         9.4000000000        6.2600000000       25.0000000000
 Ne         0.0000000000        9.4000000000       25.0000000000
 Ne         3.1300000000        9.4000000000       25.0000000000
 Ne         6.2600000000        9.4000000000       25.0000000000
 Ne         9.4000000000        9.4000000000       25.0000000000
  O         1.3407800000       10.5478900000       16.9975900000
  H         1.7705400000       10.2437300000       16.1474200000
  H         1.3151500000       11.5473300000       17.0191300000
  O         5.8023300000        4.2724600000       17.2287400000
  H         5.3506500000        5.1599000000       17.1368800000
  H         5.1117300000        3.5532500000       17.3048300000
  O        -0.0115000000        9.0307400000       18.9214200000
  H        -0.6003600000        8.7131300000       19.6646300000
  H         0.8929300000        8.6137100000       19.0113200000
  O         7.3255300000        2.1090000000       16.7029200000
  H         7.7358500000        2.9975600000       16.9081200000
  H         6.9576500000        1.7098100000       17.5427500000
  O         4.6171400000        5.9245500000       12.7902700000
  H         4.3594100000        5.4456800000       11.9510700000
  H         3.8191500000        6.0029200000       13.3878100000
  O         0.2204700000        3.0788300000       16.1155400000
  H         1.1859900000        3.2452700000       15.9153800000
  H         0.0952300000        2.1231500000       16.3819800000
  O         0.4766700000        5.9675500000       16.8669400000
  H         1.4599100000        6.1439400000       16.8209700000
  H         0.3205500000        5.0258000000       17.1648300000
  O         9.1458400000        4.7598000000       18.3049300000
  H         8.2898800000        4.3000100000       18.5414200000
  H         9.8818000000        4.0851900000       18.2477000000
      56
Lattice="11.540      0.000      0.000      0.000     11.540      0.000      0.000      0.000     35.000" Properties="species:S:1:pos:R:3" Step=1 Time=1.000 Energy=-1228.1831299154
 Au         0.0000000000        0.0000000000       10.0000000000
 Au         2.8800000000        0.0000000000       10.0000000000
 Au         5.7700000000        0.0000000000       10.0000000000
 Au         8.6500000000        0.0000000000       10.0000000000
 Au         0.0000000000        2.8800000000       10.0000000000
 Au         2.8800000000        2.8800000000       10.0000000000
 Au         5.7700000000        2.8800000000       10.0000000000
 Au         8.6500000000        2.8800000000       10.0000000000
 Au         0.0000000000        5.7700000000       10.0000000000
 Au         2.8800000000        5.7700000000       10.0000000000
 Au         5.7700000000        5.7700000000       10.0000000000
 Au         8.6500000000        5.7700000000       10.0000000000
 Au         0.0000000000        8.6500000000       10.0000000000
 Au         2.8800000000        8.6500000000       10.0000000000
 Au         5.7700000000        8.6500000000       10.0000000000
 Au         8.6500000000        8.6500000000       10.0000000000
 Ne         0.0000000000        0.0000000000       25.0000000000
 Ne         3.1300000000        0.0000000000       25.0000000000
 Ne         6.2600000000        0.0000000000       25.0000000000
 Ne         9.4000000000        0.0000000000       25.0000000000
 Ne         0.0000000000        3.1300000000       25.0000000000
 Ne         3.1300000000        3.1300000000       25.0000000000
 Ne         6.2600000000        3.1300000000       25.0000000000
 Ne         9.4000000000        3.1300000000       25.0000000000
 Ne         0.0000000000        6.2600000000       25.0000000000
 Ne         3.1300000000        6.2600000000       25.0000000000
 Ne         6.2600000000        6.2600000000       25.0000000000
 Ne         9.4000000000        6.2600000000       25.0000000000
 Ne         0.0000000000        9.4000000000       25.0000000000
 Ne         3.1300000000        9.4000000000       25.0000000000
 Ne         6.2600000000        9.4000000000       25.0000000000
 Ne         9.4000000000        9.4000000000       25.0000000000
  O         1.3451207791       10.5443785890       16.9961340468
  H         1.7753531600       10.2414640729       16.1450853251
  H         1.3088881357       11.5305724649       17.0016445677
  O         5.8081414608        4.2668650606       17.2315207035
  H         5.3799749570        5.1419812551       17.1421330397
  H         5.1238551557        3.5478557089       17.3261741414
  O        -0.0133680760        9.0279308870       18.9250679274
  H        -0.6207711210        8.6954920551       19.6489719823
  H         0.8662459890        8.6306317230       18.9976741342
  O         7.3229175188        2.1170963161       16.7006101481
  H         7.7240204212        3.0191069811       16.8978507746
  H         6.9715133332        1.7086894979       17.5589913845
  O         4.6151567095        5.9261018096       12.7855611589
  H         4.3451229723        5.4444567502       11.9708583837
  H         3.8193020104        6.0303571663       13.3832712005
  O         0.2264807308        3.0810622415       16.1168456297
  H         1.1777966146        3.2198733872       15.9347188400
  H         0.0903709728        2.1357143964       16.3864015686
  O         0.4774251352        5.9674553724       16.8660794663
  H         1.4413747458        6.1560822734       16.8306825206
  H         0.3303011697        5.0289796816       17.1957969500
  O         9.1394979845        4.7596925539       18.3031251319
  H         8.3170023641        4.3026324421       18.5315078823
  H         9.8298648365        4.0844281497       18.2515689874
      56
Lattice="11.540      0.000      0.000      0.000     11.540      0.000      0.000      0.000     35.000" Properties="species:S:1:pos:R:3" Step=2 Time=2.000 Energy=-1228.0998359949
 Au         0.0000000000        0.0000000000       10.0000000000
 Au         2.8800000000        0.0000000000       10.0000000000
 Au         5.7700000000        0.0000000000       10.0000000000
 Au         8.6500000000        0.0000000000       10.0000000000
 Au         0.0000000000        2.8800000000       10.0000000000
 Au         2.8800000000        2.8800000000       10.0000000000
 Au         5.7700000000        2.8800000000       10.0000000000
 Au         8.6500000000        2.8800000000       10.0000000000
 Au         0.0000000000        5.7700000000       10.0000000000
 Au         2.8800000000        5.7700000000       10.0000000000
 Au         5.7700000000        5.7700000000       10.0000000000
 Au         8.6500000000        5.7700000000       10.0000000000
 Au         0.0000000000        8.6500000000       10.0000000000
 Au         2.8800000000        8.6500000000       10.0000000000
 Au         5.7700000000        8.6500000000       10.0000000000
 Au         8.6500000000        8.6500000000       10.0000000000
 Ne         0.0000000000        0.0000000000       25.0000000000
 Ne         3.1300000000        0.0000000000       25.0000000000
 Ne         6.2600000000        0.0000000000       25.0000000000
 Ne         9.4000000000        0.0000000000       25.0000000000
 Ne         0.0000000000        3.1300000000       25.0000000000
 Ne         3.1300000000        3.1300000000       25.0000000000
 Ne         6.2600000000        3.1300000000       25.0000000000
 Ne         9.4000000000        3.1300000000       25.0000000000
 Ne         0.0000000000        6.2600000000       25.0000000000
 Ne         3.1300000000        6.2600000000       25.0000000000
 Ne         6.2600000000        6.2600000000       25.0000000000
 Ne         9.4000000000        6.2600000000       25.0000000000
 Ne         0.0000000000        9.4000000000       25.0000000000
 Ne         3.1300000000        9.4000000000       25.0000000000
 Ne         6.2600000000        9.4000000000       25.0000000000
 Ne         9.4000000000        9.4000000000       25.0000000000
  O         1.3496288596       10.5410390627       16.9940566748
  H         1.7753274106       10.2462622420       16.1525993992
  H         1.3056703536       11.5054225500       16.9797219683
  O         5.8137619582        4.2610390193       17.2343659861
  H         5.4065567359        5.1191636053       17.1475936662
  H         5.1422938475        3.5528484791       17.3446839500
  O        -0.0162021681        9.0253570751       18.9293083408
  H        -0.6296476673        8.6792014073       19.6251329165
  H         0.8387416449        8.6439499641       18.9862324523
  O         7.3203910563        2.1252523377       16.6992406057
  H         7.7035939790        3.0293359365       16.8866332946
  H         6.9942303294        1.7169711333       17.5622782484
  O         4.6128628610        5.9279540143       12.7814487552
  H         4.3266611889        5.4443866213       11.9940485108
  H         3.8274962287        6.0558353535       13.3673606786
  O         0.2323371263        3.0829828155       16.1186154637
  H         1.1677865595        3.1903566502       15.9533003269
  H         0.0881267595        2.1560874889       16.3874001446
  O         0.4784224742        5.9667405766       16.8653892419
  H         1.4178344466        6.1644600853       16.8432261017
  H         0.3444225704        5.0434239450       17.2210927382
  O         9.1332577719        4.7599583890       18.3011574067
  H         8.3429466694        4.3043929571       18.5216666000
  H         9.7791025385        4.0811899151       18.2556051830
      56
Lattice="11.540      0.000      0.000      0.000     11.540      0.000      0.000      0.000     35.000" Properties="species:S:1:pos:R:3" Step=3 Time=3.000 Energy=-1228.0126087201
 Au         0.0000000000        0.0000000000       10.0000000000
 Au         2.8800000000        0.0000000000       10.0000000000
 Au         5.7700000000        0.0000000000       10.0000000000
 Au         8.6500000000        0.0000000000       10.0000000000
 Au         0.0000000000        2.8800000000       10.0000000000
 Au         2.8800000000        2.8800000000       10.0000000000
 Au         5.7700000000        2.8800000000       10.0000000000
 Au         8.6500000000        2.8800000000       10.0000000000
 Au         0.0000000000        5.7700000000       10.0000000000
 Au         2.8800000000        5.7700000000       10.0000000000
 Au         5.7700000000        5.7700000000       10.0000000000
 Au         8.6500000000        5.7700000000       10.0000000000
 Au         0.0000000000        8.6500000000       10.0000000000
 Au         2.8800000000        8.6500000000       10.0000000000
 Au         5.7700000000        8.6500000000       10.0000000000
 Au         8.6500000000        8.6500000000       10.0000000000
 Ne         0.0000000000        0.0000000000       25.0000000000
 Ne         3.1300000000        0.0000000000       25.0000000000
 Ne         6.2600000000        0.0000000000       25.0000000000
 Ne         9.4000000000        0.0000000000       25.0000000000
 Ne         0.0000000000        3.1300000000       25.0000000000
 Ne         3.1300000000        3.1300000000       25.0000000000
 Ne         6.2600000000        3.1300000000       25.0000000000
 Ne         9.4000000000        3.1300000000       25.0000000000
 Ne         0.0000000000        6.2600000000       25.0000000000
 Ne         3.1300000000        6.2600000000       25.0000000000
 Ne         6.2600000000        6.2600000000       25.0000000000
 Ne         9.4000000000        6.2600000000       25.0000000000
 Ne         0.0000000000        9.4000000000       25.0000000000
 Ne         3.1300000000        9.4000000000       25.0000000000
 Ne         6.2600000000        9.4000000000       25.0000000000
 Ne         9.4000000000        9.4000000000       25.0000000000
  O         1.3541843330       10.5374297601       16.9915862067
  H         1.7726633287       10.2553507606       16.1652064063
  H         1.3045876501       11.4818822785       16.9550806895
  O         5.8197669433        4.2545181785       17.2372665334
  H         5.4248500920        5.1034414443       17.1525135515
  H         5.1618077924        3.5637741521       17.3600237702
  O        -0.0208114212        9.0235840668       18.9338539466
  H        -0.6290547536        8.6628991209       19.5970251519
  H         0.8262373327        8.6470007510       18.9779590122
  O         7.3179754094        2.1332662827       16.6986784441
  H         7.6753756371        3.0309751128       16.8747554448
  H         7.0236180703        1.7338886469       17.5537771970
  O         4.6105725532        5.9302813459       12.7781131336
  H         4.3032421326        5.4416656946       12.0137157574
  H         3.8400450344        6.0794841742       13.3445552523
  O         0.2375469024        3.0848503780       16.1208499353
  H         1.1668136050        3.1591715118       15.9683331113
  H         0.0862389145        2.1763643202       16.3871743182
  O         0.4790502108        5.9654072839       16.8648586984
  H         1.4009752806        6.1715260532       16.8579697051
  H         0.3623370093        5.0661594064       17.2400946329
  O         9.1272537854        4.7615791799       18.2988735362
  H         8.3523209392        4.2995560143       18.5157477446
  H         9.7416072522        4.0654401705       18.2580670130
      56
Lattice="11.540      0.000      0.000      0.000     11.540      0.000      0.000      0.000     35.000" Properties="species:S:1:pos:R:3" Step=4 Time=4.000 Energy=-1227.9289485135
 Au         0.0000000000        0.0000000000       10.0000000000
 Au         2.8800000000        0.0000000000       10.0000000000
 Au         5.7700000000        0.0000000000       10.0000000000
 Au         8.6500000000        0.0000000000       10.0000000000
 Au         0.0000000000        2.8800000000       10.0000000000
 Au         2.8800000000        2.8800000000       10.0000000000
 Au         5.7700000000        2.8800000000       10.0000000000
 Au         8.6500000000        2.8800000000       10.0000000000
 Au         0.0000000000        5.7700000000       10.0000000000
 Au         2.8800000000        5.7700000000       10.0000000000
 Au         5.7700000000        5.7700000000       10.0000000000
 Au         8.6500000000        5.7700000000       10.0000000000
 Au         0.0000000000        8.6500000000       10.0000000000
 Au         2.8800000000        8.6500000000       10.0000000000
 Au         5.7700000000        8.6500000000       10.0000000000
 Au         8.6500000000        8.6500000000       10.0000000000
 Ne         0.0000000000        0.0000000000       25.0000000000
 Ne         3.1300000000        0.0000000000       25.0000000000
 Ne         6.2600000000        0.0000000000       25.0000000000
 Ne         9.4000000000        0.0000000000       25.0000000000
 Ne         0.0000000000        3.1300000000       25.0000000000
 Ne         3.1300000000        3.1300000000       25.0000000000
 Ne         6.2600000000        3.1300000000       25.0000000000
 Ne         9.4000000000        3.1300000000       25.0000000000
 Ne         0.0000000000        6.2600000000       25.0000000000
 Ne         3.1300000000        6.2600000000       25.0000000000
 Ne         6.2600000000        6.2600000000       25.0000000000
 Ne         9.4000000000        6.2600000000       25.0000000000
 Ne         0.0000000000        9.4000000000       25.0000000000
 Ne         3.1300000000        9.4000000000       25.0000000000
 Ne         6.2600000000        9.4000000000       25.0000000000
 Ne         9.4000000000        9.4000000000       25.0000000000
  O         1.3586070049       10.5332059616       16.9891464524
  H         1.7711942183       10.2647766521       16.1749392803
  H         1.3043618344       11.4708950263       16.9297976514
  O         5.8267800089        4.2472536001       17.2401544605
  H         5.4327164901        5.1017244515       17.1565855997
  H         5.1755369426        3.5740957123       17.3732549589
  O        -0.0272049187        9.0229860302       18.9383256239
  H        -0.6244492579        8.6429665513       19.5696121398
  H         0.8336938623        8.6375644386       18.9728580412
  O         7.3157135503        2.1408818696       16.6984868793
  H         7.6429579715        3.0303569918       16.8631318059
  H         7.0565948916        1.7565071501       17.5401363280
  O         4.6087150913        5.9330787850       12.7754221239
  H         4.2751441606        5.4339114191       12.0266845871
  H         3.8502793145        6.1023012350       13.3223894918
  O         0.2419549718        3.0870212222       16.1234699129
  H         1.1809220381        3.1291239681       15.9789102583
  H         0.0820690931        2.1888142512       16.3882523934
  O         0.4789258620        5.9636986025       16.8643554605
  H         1.3985545290        6.1796439852       16.8739673807
  H         0.3828987131        5.0912058546       17.2548645234
  O         9.1215886235        4.7648506957       18.2962149054
  H         8.3376703808        4.2866854274       18.5154382191
  H         9.7241115584        4.0341412884       18.2579953583
      56
Lattice="11.540      0.000      0.000      0.000     11.540      0.000      0.000      0.000     35.000" Properties="species:S:1:pos:R:3" Step=5 Time=5.000 Energy=-1227.8472017424
 Au         0.0000000000        0.0000000000       10.0000000000
 Au         2.8800000000        0.0000000000       10.0000000000
 Au         5.7700000000        0.0000000000       10.0000000000
 Au         8.6500000000        0.0000000000       10.0000000000
 Au         0.0000000000        2.8800000000       10.0000000000
 Au         2.8800000000        2.8800000000       10.0000000000
 Au         5.7700000000        2.8800000000       10.0000000000
 Au         8.6500000000        2.8800000000       10.0000000000
 Au         0.0000000000        5.7700000000       10.0000000000
 Au         2.8800000000        5.7700000000       10.0000000000
 Au         5.7700000000        5.7700000000       10.0000000000
 Au         8.6500000000        5.7700000000       10.0000000000
 Au         0.0000000000        8.6500000000       10.0000000000
 Au         2.8800000000        8.6500000000       10.0000000000
 Au         5.7700000000        8.6500000000       10.0000000000
 Au         8.6500000000        8.6500000000       10.0000000000
 Ne         0.0000000000        0.0000000000       25.0000000000
 Ne         3.1300000000        0.0000000000       25.0000000000
 Ne         6.2600000000        0.0000000000       25.0000000000
 Ne         9.4000000000        0.0000000000       25.0000000000
 Ne         0.0000000000        3.1300000000       25.0000000000
 Ne         3.1300000000        3.1300000000       25.0000000000
 Ne         6.2600000000        3.1300000000       25.0000000000
 Ne         9.4000000000        3.1300000000       25.0000000000
 Ne         0.0000000000        6.2600000000       25.0000000000
 Ne         3.1300000000        6.2600000000       25.0000000000
 Ne         6.2600000000        6.2600000000       25.0000000000
 Ne         9.4000000000        6.2600000000       25.0000000000
 Ne         0.0000000000        9.4000000000       25.0000000000
 Ne         3.1300000000        9.4000000000       25.0000000000
 Ne         6.2600000000        9.4000000000       25.0000000000
 Ne         9.4000000000        9.4000000000       25.0000000000
  O         1.3627033584       10.5284338803       16.9871734317
  H         1.7747955290       10.2708606868       16.1740648825
  H         1.3040105526       11.4762063980       16.9045087247
  O         5.8350882314        4.2397479483       17.2429173652
  H         5.4320733476        5.1115794445       17.1603578275
  H         5.1778396821        3.5780253604       17.3861278794
  O        -0.0343848428        9.0236053355       18.9423244101
  H        -0.6230607881        8.6141242856       19.5492506667
  H         0.8520757039        8.6194260822       18.9701395461
  O         7.3136734125        2.1478567904       16.6979591870
  H         7.6106956560        3.0362248124       16.8529229457
  H         7.0904153884        1.7795573897       17.5326044029
  O         4.6076239920        5.9361477409       12.7729451067
  H         4.2430761480        5.4212589457       12.0340141648
  H         3.8511435928        6.1269117960       13.3074165707
  O         0.2459458847        3.0897173567       16.1263488762
  H         1.2070009148        3.1005933775       15.9860153266
  H         0.0737019520        2.1893770503       16.3920993449
  O         0.4781912009        5.9621327176       16.8636390966
  H         1.4102298488        6.1895106313       16.8902687881
  H         0.4041257082        5.1105906396       17.2697764660
  O         9.1161845533        4.7689223620       18.2932842890
  H         8.3062850480        4.2711816624       18.5185634766
  H         9.7208717419        3.9944597818       18.2555671393
      56
Lattice="11.540      0.000      0.000      0.000     11.540      0.000      0.000      0.000     35.000" Properties="species:S:1:pos:R:3" Step=6 Time=6.000 Energy=-1227.7642731205
 Au         0.0000000000        0.0000000000       10.0000000000
 Au         2.8800000000        0.0000000000       10.0000000000
 Au         5.7700000000        0.0000000000       10.0000000000
 Au         8.6500000000        0.0000000000       10.0000000000
 Au         0.0000000000        2.8800000000       10.0000000000
 Au         2.8800000000        2.8800000000       10.0000000000
 Au         5.7700000000        2.8800000000       10.0000000000
 Au         8.6500000000        2.8800000000       10.0000000000
 Au         0.0000000000        5.7700000000       10.0000000000
 Au         2.8800000000        5.7700000000       10.0000000000
 Au         5.7700000000        5.7700000000       10.0000000000
 Au         8.6500000000        5.7700000000       10.0000000000
 Au         0.0000000000        8.6500000000       10.0000000000
 Au         2.8800000000        8.6500000000       10.0000000000
 Au         5.7700000000        8.6500000000       10.0000000000
 Au         8.6500000000        8.6500000000       10.0000000000
 Ne         0.0000000000        0.0000000000       25.0000000000
 Ne         3.1300000000        0.0000000000       25.0000000000
 Ne         6.2600000000        0.0000000000       25.0000000000
 Ne         9.4000000000        0.0000000000       25.0000000000
 Ne         0.0000000000        3.1300000000       25.0000000000
 Ne         3.1300000000        3.1300000000       25.0000000000
 Ne         6.2600000000        3.1300000000       25.0000000000
 Ne         9.4000000000        3.1300000000       25.0000000000
 Ne         0.0000000000        6.2600000000       25.0000000000
 Ne         3.1300000000        6.2600000000       25.0000000000
 Ne         6.2600000000        6.2600000000       25.0000000000
 Ne         9.4000000000        6.2600000000       25.0000000000
 Ne         0.0000000000        9.4000000000       25.0000000000
 Ne         3.1300000000        9.4000000000       25.0000000000
 Ne         6.2600000000        9.4000000000       25.0000000000
 Ne         9.4000000000        9.4000000000       25.0000000000
  O         1.3664036638       10.5236325386       16.9857559979
  H         1.7845741299       10.2720822938       16.1605099210
  H         1.3033650568       11.4912068838       16.8791375568
  O         5.8443927580        4.2326640368       17.2454781750
  H         5.4275917272        5.1238320005       17.1649746944
  H         5.1676613832        3.5744683775       17.3997936684
  O        -0.0411895754        9.0252028346       18.9456804383
  H        -0.6287190608        8.5734675753       19.5398752142
  H         0.8665236442        8.5992364932       18.9689266256
  O         7.3119400709        2.1540541858       16.6964544584
  H         7.5796735883        3.0549046384       16.8446213152
  H         7.1216136725        1.7970004622       17.5415918804
  O         4.6072306604        5.9391800524       12.7703146898
  H         4.2088172414        5.4059957540       12.0398992050
  H         3.8407798147        6.1558297334       13.3013459878
  O         0.2502128640        3.0927722094       16.1294220144
  H         1.2343153538        3.0724573486       15.9915818347
  H         0.0610365771        2.1801595102       16.3979833506
  O         0.4774351783        5.9612443239       16.8625028678
  H         1.4281924527        6.1998012872       16.9062315646
  H         0.4237763609        5.1172925880       17.2891864493
  O         9.1108166382        4.7724468291       18.2902524653
  H         8.2709331111        4.2608317348       18.5212382032
  H         9.7210662861        3.9592937345       18.2515754705
      56
Lattice="11.540      0.000      0.000      0.000     11.540      0.000      0.000      0.000     35.000" Properties="species:S:1:pos:R:3" Step=7 Time=7.000 Energy=-1227.6806806665
 Au         0.0000000000        0.0000000000       10.0000000000
 Au         2.8800000000        0.0000000000       10.0000000000
 Au         5.7700000000        0.0000000000       10.0000000000
 Au         8.6500000000        0.0000000000       10.0000000000
 Au         0.0000000000        2.8800000000       10.0000000000
 Au         2.8800000000        2.8800000000       10.0000000000
 Au         5.7700000000        2.8800000000       10.0000000000
 Au         8.6500000000        2.8800000000       10.0000000000
 Au         0.0000000000        5.7700000000       10.0000000000
 Au         2.8800000000        5.7700000000       10.0000000000
 Au         5.7700000000        5.7700000000       10.0000000000
 Au         8.6500000000        5.7700000000       10.0000000000
 Au         0.0000000000        8.6500000000       10.0000000000
 Au         2.8800000000        8.6500000000       10.0000000000
 Au         5.7700000000        8.6500000000       10.0000000000
 Au         8.6500000000        8.6500000000       10.0000000000
 Ne         0.0000000000        0.0000000000       25.0000000000
 Ne         3.1300000000        0.0000000000       25.0000000000
 Ne         6.2600000000        0.0000000000       25.0000000000
 Ne         9.4000000000        0.0000000000       25.0000000000
 Ne         0.0000000000        3.1300000000       25.0000000000
 Ne         3.1300000000        3.1300000000       25.0000000000
 Ne         6.2600000000        3.1300000000       25.0000000000
 Ne         9.4000000000        3.1300000000       25.0000000000
 Ne         0.0000000000        6.2600000000       25.0000000000
 Ne         3.1300000000        6.2600000000       25.0000000000
 Ne         6.2600000000        6.2600000000       25.0000000000
 Ne         9.4000000000        6.2600000000       25.0000000000
 Ne         0.0000000000        9.4000000000       25.0000000000
 Ne         3.1300000000        9.4000000000       25.0000000000
 Ne         6.2600000000        9.4000000000       25.0000000000
 Ne         9.4000000000        9.4000000000       25.0000000000
  O         1.3698446784       10.5193952780       16.9845036960
  H         1.7976870742       10.2694543569       16.1400020520
  H         1.3028357476       11.5046135816       16.8548965813
  O         5.8539658151        4.2263550968       17.2478571095
  H         5.4238815855        5.1290098761       17.1715046376
  H         5.1497407130        3.5677948395       17.4140257300
  O        -0.0471111903        9.0273051667       18.9486493529
  H        -0.6381712424        8.5247764290       19.5380237471
  H         0.8660489075        8.5829378838       18.9684960832
  O         7.3105585187        2.1595061890       16.6939407904
  H         7.5489396988        3.0851385444       16.8376000072
  H         7.1490634964        1.8069252955       17.5681761939
  O         4.6070035386        5.9419586528       12.7674291046
  H         4.1766008782        5.3912117989       12.0492573860
  H         3.8245369724        6.1887424170       13.3008577443
  O         0.2553178952        3.0956844378       16.1327235410
  H         1.2522287237        3.0450528521       15.9973267094
  H         0.0457617268        2.1680082077       16.4034917452
  O         0.4772940283        5.9611512509       16.8609928850
  H         1.4423796269        6.2085550245       16.9216233956
  H         0.4406905669        5.1112830502       17.3140795675
  O         9.1052306298        4.7743893236       18.2872583414
  H         8.2424896517        4.2615071735       18.5203747871
  H         9.7164428385        3.9401301871       18.2468468923
      56
Lattice="11.540      0.000      0.000      0.000     11.540      0.000      0.000      0.000     35.000" Properties="species:S:1:pos:R:3" Step=8 Time=8.000 Energy=-1227.5990898667
 Au         0.0000000000        0.0000000000       10.0000000000
 Au         2.8800000000        0.0000000000       10.0000000000
 Au         5.7700000000        0.0000000000       10.0000000000
 Au         8.6500000000        0.0000000000       10.0000000000
 Au         0.0000000000        2.8800000000       10.0000000000
 Au         2.8800000000        2.8800000000       10.0000000000
 Au         5.7700000000        2.8800000000       10.0000000000
 Au         8.6500000000        2.8800000000       10.0000000000
 Au         0.0000000000        5.7700000000       10.0000000000
 Au         2.8800000000        5.7700000000       10.0000000000
 Au         5.7700000000        5.7700000000       10.0000000000
 Au         8.6500000000        5.7700000000       10.0000000000
 Au         0.0000000000        8.6500000000       10.0000000000
 Au         2.8800000000        8.6500000000       10.0000000000
 Au         5.7700000000        8.6500000000       10.0000000000
 Au         8.6500000000        8.6500000000       10.0000000000
 Ne         0.0000000000        0.0000000000       25.0000000000
 Ne         3.1300000000        0.0000000000       25.0000000000
 Ne         6.2600000000        0.0000000000       25.0000000000
 Ne         9.4000000000        0.0000000000       25.0000000000
 Ne         0.0000000000        3.1300000000       25.0000000000
 Ne         3.1300000000        3.1300000000       25.0000000000
 Ne         6.2600000000        3.1300000000       25.0000000000
 Ne         9.4000000000        3.1300000000       25.0000000000
 Ne         0.0000000000        6.2600000000       25.0000000000
 Ne         3.1300000000        6.2600000000       25.0000000000
 Ne         6.2600000000        6.2600000000       25.0000000000
 Ne         9.4000000000        6.2600000000       25.0000000000
 Ne         0.0000000000        9.4000000000       25.0000000000
 Ne         3.1300000000        9.4000000000       25.0000000000
 Ne         6.2600000000        9.4000000000       25.0000000000
 Ne         9.4000000000        9.4000000000       25.0000000000
  O         1.3732972597       10.5161226346       16.9827682353
  H         1.8090733063       10.2651353096       16.1226081484
  H         1.3029035739       11.5069811643       16.8344938910
  O         5.8629585829        4.2208239596       17.2501489722
  H         5.4242432374        5.1212248334       17.1806140850
  H         5.1327597727        3.5648594748       17.4273348570
  O        -0.0522913762        9.0293099803       18.9517652733
  H        -0.6438826382        8.4733823795       19.5355710756
  H         0.8467306894        8.5739698556       18.9681755766
  O         7.3095310470        2.1643933540       16.6911363121
  H         7.5173355456        3.1181078882       16.8305397426
  H         7.1757929477        1.8131754024       17.6006113620
  O         4.6061802287        5.9443744234       12.7644097529
  H         4.1500374939        5.3800339283       12.0660029349
  H         3.8112765324        6.2220690623       13.3001068224
  O         0.2615355490        3.0978503083       16.1363521877
  H         1.2551535141        3.0201374548       16.0043160628
  H         0.0303656760        2.1612725192       16.4058839655
  O         0.4782191939        5.9614314593       16.8594367063
  H         1.4449352258        6.2143991892       16.9364709116
  H         0.4548891694        5.1008676175       17.3398660426
  O         9.0992077690        4.7742553286       18.2843831541
  H         8.2287972604        4.2764099699       18.5142935918
  H         9.7028799509        3.9417732681       18.2419843783
      56
Lattice="11.540      0.000      0.000      0.000     11.540      0.000      0.000      0.000     35.000" Properties="species:S:1:pos:R:3" Step=9 Time=9.000 Energy=-1227.5229300542
 Au         0.0000000000        0.0000000000       10.0000000000
 Au         2.8800000000        0.0000000000       10.0000000000
 Au         5.7700000000        0.0000000000       10.0000000000
 Au         8.6500000000        0.0000000000       10.0000000000
 Au         0.0000000000        2.8800000000       10.0000000000
 Au         2.8800000000        2.8800000000       10.0000000000
 Au         5.7700000000        2.8800000000       10.0000000000
 Au         8.6500000000        2.8800000000       10.0000000000
 Au         0.0000000000        5.7700000000       10.0000000000
 Au         2.8800000000        5.7700000000       10.0000000000
 Au         5.7700000000        5.7700000000       10.0000000000
 Au         8.6500000000        5.7700000000       10.0000000000
 Au         0.0000000000        8.6500000000       10.0000000000
 Au         2.8800000000        8.6500000000       10.0000000000
 Au         5.7700000000        8.6500000000       10.0000000000
 Au         8.6500000000        8.6500000000       10.0000000000
 Ne         0.0000000000        0.0000000000       25.0000000000
 Ne         3.1300000000        0.0000000000       25.0000000000
 Ne         6.2600000000        0.0000000000       25.0000000000
 Ne         9.4000000000        0.0000000000       25.0000000000
 Ne         0.0000000000        3.1300000000       25.0000000000
 Ne         3.1300000000        3.1300000000       25.0000000000
 Ne         6.2600000000        3.1300000000       25.0000000000
 Ne         9.4000000000        3.1300000000       25.0000000000
 Ne         0.0000000000        6.2600000000       25.0000000000
 Ne         3.1300000000        6.2600000000       25.0000000000
 Ne         6.2600000000        6.2600000000       25.0000000000
 Ne         9.4000000000        6.2600000000       25.0000000000
 Ne         0.0000000000        9.4000000000       25.0000000000
 Ne         3.1300000000        9.4000000000       25.0000000000
 Ne         6.2600000000        9.4000000000       25.0000000000
 Ne         9.4000000000        9.4000000000       25.0000000000
  O         1.3769801395       10.5138720509       16.9801191912
  H         1.8152918440       10.2603681118       16.1147035366
  H         1.3036423204       11.4954932047       16.8196485095
  O         5.8708689453        4.2158281300       17.2524607815
  H         5.4296153303        5.1013121455       17.1921761984
  H         5.1239281576        3.5698672689       17.4381168583
  O        -0.0572356294        9.0308145658       18.9554432406
  H        -0.6405931046        8.4271155452       19.5262443056
  H         0.8132582035        8.5719766593       18.9671970463
  O         7.3088498941        2.1689237718       16.6888192719
  H         7.4832279546        3.1464419272       16.8224309129
  H         7.2047821145        1.8203558948       17.6267324643
  O         4.6042469852        5.9464796072       12.7614747940
  H         4.1295472551        5.3736766550       12.0903778285
  H         3.8071646084        6.2539598038       13.2949180484
  O         0.2687595924        3.0989248719       16.1404024655
  H         1.2441140794        2.9984342777       16.0126123965
  H         0.0162914125        2.1647729391       16.4037684478
  O         0.4802986400        5.9615356486       16.8581887908
  H         1.4346392682        6.2175729082       16.9508618524
  H         0.4666540368        5.0947007310       17.3602917178
  O         9.0926498524        4.7722138440       18.2816252901
  H         8.2303945213        4.3053810671       18.5031915046
  H         9.6807428055        3.9627424805       18.2372241958
      56
Lattice="11.540      0.000      0.000      0.000     11.540      0.000      0.000      0.000     35.000" Properties="species:S:1:pos:R:3" Step=10 Time=10.000 Energy=-1227.4459941108
 Au         0.0000000000        0.0000000000       10.0000000000
 Au         2.8800000000        0.0000000000       10.0000000000
 Au         5.7700000000        0.0000000000       10.0000000000
 Au         8.6500000000        0.0000000000       10.0000000000
 Au         0.0000000000        2.8800000000       10.0000000000
 Au         2.8800000000        2.8800000000       10.0000000000
 Au         5.7700000000        2.8800000000       10.0000000000
 Au         8.6500000000        2.8800000000       10.0000000000
 Au         0.0000000000        5.7700000000       10.0000000000
 Au         2.8800000000        5.7700000000       10.0000000000
 Au         5.7700000000        5.7700000000       10.0000000000
 Au         8.6500000000        5.7700000000       10.0000000000
 Au         0.0000000000        8.6500000000       10.0000000000
 Au         2.8800000000        8.6500000000       10.0000000000
 Au         5.7700000000        8.6500000000       10.0000000000
 Au         8.6500000000        8.6500000000       10.0000000000
 Ne         0.0000000000        0.0000000000       25.0000000000
 Ne         3.1300000000        0.0000000000       25.0000000000
 Ne         6.2600000000        0.0000000000       25.0000000000
 Ne         9.4000000000        0.0000000000       25.0000000000
 Ne         0.0000000000        3.1300000000       25.0000000000
 Ne         3.1300000000        3.1300000000       25.0000000000
 Ne         6.2600000000        3.1300000000       25.0000000000
 Ne         9.4000000000        3.1300000000       25.0000000000
 Ne         0.0000000000        6.2600000000       25.0000000000
 Ne         3.1300000000        6.2600000000       25.0000000000
 Ne         6.2600000000        6.2600000000       25.0000000000
 Ne         9.4000000000        6.2600000000       25.0000000000
 Ne         0.0000000000        9.4000000000       25.0000000000
 Ne         3.1300000000        9.4000000000       25.0000000000
 Ne         6.2600000000        9.4000000000       25.0000000000
 Ne         9.4000000000        9.4000000000       25.0000000000
  O         1.3810022679       10.5123884446       16.9764844939
  H         1.8155684437       10.2550084559       16.1176082248
  H         1.3046169875       11.4740574182       16.8102032029
  O         5.8776624739        4.2109685464       17.2548784923
  H         5.4386589485        5.0757068072       17.2052042961
  H         5.1260729730        3.5831086116       17.4454770593
  O        -0.0626063722        9.0317522206       18.9598796279
  H        -0.6273511911        8.3902282542       19.5077060715
  H         0.7755758857        8.5734044335       18.9646759137
  O         7.3085083437        2.1732681721       16.6874625922
  H         7.4445451513        3.1653189975       16.8126550513
  H         7.2362157323        1.8312034391       17.6403398654
  O         4.6010916214        5.9484250087       12.7588551706
  H         4.1138562345        5.3706783653       12.1187677018
  H         3.8142606615        6.2848618429       13.2839240518
  O         0.2765235267        3.0989198471       16.1449484016
  H         1.2262663128        2.9790816484       16.0212233543
  H         0.0031994101        2.1784533150       16.3973835588
  O         0.4832848640        5.9610539226       16.8574460569
  H         1.4166221058        6.2198819512       16.9647912579
  H         0.4760156838        5.0975326836       17.3720226484
  O         9.0855998758        4.7690858821       18.2789098741
  H         8.2406119868        4.3444467523       18.4892923745
  H         9.6546961932        3.9949122622       18.2323393672
      56
Lattice="11.540      0.000      0.000      0.000     11.540      0.000      0.000      0.000     35.000" Properties="species:S:1:pos:R:3" Step=11 Time=11.000 Energy=-1227.3621056186
 Au         0.0000000000        0.0000000000       10.0000000000
 Au         2.8800000000        0.0000000000       10.0000000000
 Au         5.7700000000        0.0000000000       10.0000000000
 Au         8.6500000000        0.0000000000       10.0000000000
 Au         0.0000000000        2.8800000000       10.0000000000
 Au         2.8800000000        2.8800000000       10.0000000000
 Au         5.7700000000        2.8800000000       10.0000000000
 Au         8.6500000000        2.8800000000       10.0000000000
 Au         0.0000000000        5.7700000000       10.0000000000
 Au         2.8800000000        5.7700000000       10.0000000000
 Au         5.7700000000        5.7700000000       10.0000000000
 Au         8.6500000000        5.7700000000       10.0000000000
 Au         0.0000000000        8.6500000000       10.0000000000
 Au         2.8800000000        8.6500000000       10.0000000000
 Au         5.7700000000        8.6500000000       10.0000000000
 Au         8.6500000000        8.6500000000       10.0000000000
 Ne         0.0000000000        0.0000000000       25.0000000000
 Ne         3.1300000000        0.0000000000       25.0000000000
 Ne         6.2600000000        0.0000000000       25.0000000000
 Ne         9.4000000000        0.0000000000       25.0000000000
 Ne         0.0000000000        3.1300000000       25.0000000000
 Ne         3.1300000000        3.1300000000       25.0000000000
 Ne         6.2600000000        3.1300000000       25.0000000000
 Ne         9.4000000000        3.1300000000       25.0000000000
 Ne         0.0000000000        6.2600000000       25.0000000000
 Ne         3.1300000000        6.2600000000       25.0000000000
 Ne         6.2600000000        6.2600000000       25.0000000000
 Ne         9.4000000000        6.2600000000       25.0000000000
 Ne         0.0000000000        9.4000000000       25.0000000000
 Ne         3.1300000000        9.4000000000       25.0000000000
 Ne         6.2600000000        9.4000000000       25.0000000000
 Ne         9.4000000000        9.4000000000       25.0000000000
  O         1.3853962853       10.5112267489       16.9720539324
  H         1.8109896107       10.2478831558       16.1295150169
  H         1.3049926073       11.4514325807       16.8049862094
  O         5.8836375607        4.2058967849       17.2574463602
  H         5.4488532378        5.0524931251       17.2182146449
  H         5.1379292944        3.6019638543       17.4495496171
  O        -0.0690771425        9.0323475602       18.9650996606
  H        -0.6070774419        8.3634616928       19.4805995592
  H         0.7464114137        8.5729352079       18.9595682088
  O         7.3085026517        2.1775391332       16.6872480756
  H         7.4020308982        3.1715965216       16.8007178981
  H         7.2686649019        1.8467667050       17.6388273638
  O         4.5968339804        5.9503337054       12.7567092846
  H         4.1015312451        5.3684131179       12.1479203393
  H         3.8321351347        6.3145405817       13.2675712559
  O         0.2841638327        3.0981007473       16.1499544806
  H         1.2125855130        2.9607036203       16.0285409030
  H        -0.0106561837        2.1991363623       16.3881868174
  O         0.4867525863        5.9597726545       16.8572585647
  H         1.3990632571        6.2241038949       16.9781704462
  H         0.4826486287        5.1103254322       17.3745086742
  O         9.0782382332        4.7662280889       18.2761065540
  H         8.2465372396        4.3850791090       18.4765899526
  H         9.6343763702        4.0231088030       18.2266487372
      56
Lattice="11.540      0.000      0.000      0.000     11.540      0.000      0.000      0.000     35.000" Properties="species:S:1:pos:R:3" Step=12 Time=12.000 Energy=-1227.2788073324
 Au         0.0000000000        0.0000000000       10.0000000000
 Au         2.8800000000        0.0000000000       10.0000000000
 Au         5.7700000000        0.0000000000       10.0000000000
 Au         8.6500000000        0.0000000000       10.0000000000
 Au         0.0000000000        2.8800000000       10.0000000000
 Au         2.8800000000        2.8800000000       10.0000000000
 Au         5.7700000000        2.8800000000       10.0000000000
 Au         8.6500000000        2.8800000000       10.0000000000
 Au         0.0000000000        5.7700000000       10.0000000000
 Au         2.8800000000        5.7700000000       10.0000000000
 Au         5.7700000000        5.7700000000       10.0000000000
 Au         8.6500000000        5.7700000000       10.0000000000
 Au         0.0000000000        8.6500000000       10.0000000000
 Au         2.8800000000        8.6500000000       10.0000000000
 Au         5.7700000000        8.6500000000       10.0000000000
 Au         8.6500000000        8.6500000000       10.0000000000
 Ne         0.0000000000        0.0000000000       25.0000000000
 Ne         3.1300000000        0.0000000000       25.0000000000
 Ne         6.2600000000        0.0000000000       25.0000000000
 Ne         9.4000000000        0.0000000000       25.0000000000
 Ne         0.0000000000        3.1300000000       25.0000000000
 Ne         3.1300000000        3.1300000000       25.0000000000
 Ne         6.2600000000        3.1300000000       25.0000000000
 Ne         9.4000000000        3.1300000000       25.0000000000
 Ne         0.0000000000        6.2600000000       25.0000000000
 Ne         3.1300000000        6.2600000000       25.0000000000
 Ne         6.2600000000        6.2600000000       25.0000000000
 Ne         9.4000000000        6.2600000000       25.0000000000
 Ne         0.0000000000        9.4000000000       25.0000000000
 Ne         3.1300000000        9.4000000000       25.0000000000
 Ne         6.2600000000        9.4000000000       25.0000000000
 Ne         9.4000000000        9.4000000000       25.0000000000
  O         1.3901029846       10.5098988394       16.9672524649
  H         1.8044241134       10.2369214883       16.1452297846
  H         1.3037929445       11.4375527453       16.8023955987
  O         5.8893504173        4.2004865838       17.2601444816
  H         5.4574909105        5.0399358951       17.2298094496
  H         5.1537937651        3.6206596846       17.4517019613
  O        -0.0769388763        9.0329549944       18.9709551468
  H        -0.5854884088        8.3460246065       19.4469839112
  H         0.7377664496        8.5667233249       18.9507522207
  O         7.3088203623        2.1817395778       16.6880393118
  H         7.3571756812        3.1661461637       16.7861875023
  H         7.3021855206        1.8665597545       17.6240768262
  O         4.5918262269        5.9522806122       12.7550587112
  H         4.0908742647        5.3637378980       12.1758673101
  H         3.8573280884        6.3438811163       13.2486675526
  O         0.2911329885        3.0969358214       16.1553070565
  H         1.2130976895        2.9422488191       16.0330691832
  H        -0.0281105131        2.2213717287       16.3785447204
  O         0.4902674200        5.9577557695       16.8574886018
  H         1.3894364187        6.2332393956       16.9908989532
  H         0.4860515167        5.1296337567       17.3696103186
  O         9.0708711685        4.7650265628       18.2730824895
  H         8.2337612232        4.4205916968       18.4691162441
  H         9.6304058319        4.0328720760       18.2193395126
      56
Lattice="11.540      0.000      0.000      0.000     11.540      0.000      0.000      0.000     35.000" Properties="species:S:1:pos:R:3" Step=13 Time=13.000 Energy=-1227.2145131554
 Au         0.0000000000        0.0000000000       10.0000000000
 Au         2.8800000000        0.0000000000       10.0000000000
 Au         5.7700000000        0.0000000000       10.0000000000
 Au         8.6500000000        0.0000000000       10.0000000000
 Au         0.0000000000        2.8800000000       10.0000000000
 Au         2.8800000000        2.8800000000       10.0000000000
 Au         5.7700000000        2.8800000000       10.0000000000
 Au         8.6500000000        2.8800000000       10.0000000000
 Au         0.0000000000        5.7700000000       10.0000000000
 Au         2.8800000000        5.7700000000       10.0000000000
 Au         5.7700000000        5.7700000000       10.0000000000
 Au         8.6500000000        5.7700000000       10.0000000000
 Au         0.0000000000        8.6500000000       10.0000000000
 Au         2.8800000000        8.6500000000       10.0000000000
 Au         5.7700000000        8.6500000000       10.0000000000
 Au         8.6500000000        8.6500000000       10.0000000000
 Ne         0.0000000000        0.0000000000       25.0000000000
 Ne         3.1300000000        0.0000000000       25.0000000000
 Ne         6.2600000000        0.0000000000       25.0000000000
 Ne         9.4000000000        0.0000000000       25.0000000000
 Ne         0.0000000000        3.1300000000       25.0000000000
 Ne         3.1300000000        3.1300000000       25.0000000000
 Ne         6.2600000000        3.1300000000       25.0000000000
 Ne         9.4000000000        3.1300000000       25.0000000000
 Ne         0.0000000000        6.2600000000       25.0000000000
 Ne         3.1300000000        6.2600000000       25.0000000000
 Ne         6.2600000000        6.2600000000       25.0000000000
 Ne         9.4000000000        6.2600000000       25.0000000000
 Ne         0.0000000000        9.4000000000       25.0000000000
 Ne         3.1300000000        9.4000000000       25.0000000000
 Ne         6.2600000000        9.4000000000       25.0000000000
 Ne         9.4000000000        9.4000000000       25.0000000000
  O         1.3949616280       10.5081417137       16.9626314351
  H         1.8000528586       10.2197422813       16.1563723423
  H         1.3004761980       11.4383610924       16.8009722186
  O         5.8954256139        4.1949753482       17.2628914933
  H         5.4634682206        5.0428547397       17.2391982593
  H         5.1648885668        3.6309203498       17.4541741636
  O        -0.0856516675        9.0338170685       18.9771159886
  H        -0.5693767088        8.3327082856       19.4114981640
  H         0.7496410217        8.5568468455       18.9376585095
  O         7.3094352302        2.1857349296       16.6893441682
  H         7.3095243234        3.1547315622       16.7687743869
  H         7.3370918794        1.8882172379       17.6030396610
  O         4.5866629906        5.9542093815       12.7537818902
  H         4.0798018411        5.3535511420       12.1996237142
  H         3.8821366324        6.3774600342       13.2328109560
  O         0.2973856193        3.0959565287       16.1608584718
  H         1.2295943250        2.9236412314       16.0344420418
  H        -0.0521538996        2.2380120033       16.3708792650
  O         0.4936144776        5.9554269291       16.8578168163
  H         1.3911324503        6.2492644195       17.0028192110
  H         0.4858988349        5.1469714074       17.3617354480
  O         9.0638038402        4.7659200875       18.2698015554
  H         8.1979940608        4.4484919773       18.4681453242
  H         9.6437123536        4.0208701813       18.2103428438
      56
Lattice="11.540      0.000      0.000      0.000     11.540      0.000      0.000      0.000     35.000" Properties="species:S:1:pos:R:3" Step=14 Time=14.000 Energy=-1227.1480708554
 Au         0.0000000000        0.0000000000       10.0000000000
 Au         2.8800000000        0.0000000000       10.0000000000
 Au         5.7700000000        0.0000000000       10.0000000000
 Au         8.6500000000        0.0000000000       10.0000000000
 Au         0.0000000000        2.8800000000       10.0000000000
 Au         2.8800000000        2.8800000000       10.0000000000
 Au         5.7700000000        2.8800000000       10.0000000000
 Au         8.6500000000        2.8800000000       10.0000000000
 Au         0.0000000000        5.7700000000       10.0000000000
 Au         2.8800000000        5.7700000000       10.0000000000
 Au         5.7700000000        5.7700000000       10.0000000000
 Au         8.6500000000        5.7700000000       10.0000000000
 Au         0.0000000000        8.6500000000       10.0000000000
 Au         2.8800000000        8.6500000000       10.0000000000
 Au         5.7700000000        8.6500000000       10.0000000000
 Au         8.6500000000        8.6500000000       10.0000000000
 Ne         0.0000000000        0.0000000000       25.0000000000
 Ne         3.1300000000        0.0000000000       25.0000000000
 Ne         6.2600000000        0.0000000000       25.0000000000
 Ne         9.4000000000        0.0000000000       25.0000000000
 Ne         0.0000000000        3.1300000000       25.0000000000
 Ne         3.1300000000        3.1300000000       25.0000000000
 Ne         6.2600000000        3.1300000000       25.0000000000
 Ne         9.4000000000        3.1300000000       25.0000000000
 Ne         0.0000000000        6.2600000000       25.0000000000
 Ne         3.1300000000        6.2600000000       25.0000000000
 Ne         6.2600000000        6.2600000000       25.0000000000
 Ne         9.4000000000        6.2600000000       25.0000000000
 Ne         0.0000000000        9.4000000000       25.0000000000
 Ne         3.1300000000        9.4000000000       25.0000000000
 Ne         6.2600000000        9.4000000000       25.0000000000
 Ne         9.4000000000        9.4000000000       25.0000000000
  O         1.3998172287       10.5061333789       16.9586265597
  H         1.8007659449       10.1957500810       16.1564966091
  H         1.2956011076       11.4517055697       16.8000970712
  O         5.9021051734        4.1899270827       17.2656249829
  H         5.4689548438        5.0577861664       17.2463380466
  H         5.1652595949        3.6273615902       17.4585021925
  O        -0.0940696434        9.0349652231       18.9831840029
  H        -0.5647610539        8.3158030267       19.3811928732
  H         0.7705004042        8.5504055428       18.9208720581
  O         7.3103154513        2.1893236180       16.6904303956
  H         7.2612027182        3.1454838867       16.7486406314
  H         7.3722537145        1.9074972553       17.5859988262
  O         4.5818225309        5.9559430325       12.7526725902
  H         4.0673246849        5.3371473504       12.2173998734
  H         3.8992347139        6.4198754139       13.2246458417
  O         0.3033972521        3.0954018599       16.1664529945
  H         1.2535307037        2.9057928056       16.0338776614
  H        -0.0831457397        2.2446450324       16.3661828983
  O         0.4969795175        5.9534419149       16.8579051707
  H         1.4009773358        6.2716768919       17.0134428232
  H         0.4823537668        5.1526422237       17.3561744277
  O         9.0571052086        4.7681123301       18.2663684430
  H         8.1494684362        4.4698360824       18.4712008191
  H         9.6627479295        3.9969376367       18.2006588424
      56
Lattice="11.540      0.000      0.000      0.000     11.540      0.000      0.000      0.000     35.000" Properties="species:S:1:pos:R:3" Step=15 Time=15.000 Energy=-1227.0793752428
 Au         0.0000000000        0.0000000000       10.0000000000
 Au         2.8800000000        0.0000000000       10.0000000000
 Au         5.7700000000        0.0000000000       10.0000000000
 Au         8.6500000000        0.0000000000       10.0000000000
 Au         0.0000000000        2.8800000000       10.0000000000
 Au         2.8800000000        2.8800000000       10.0000000000
 Au         5.7700000000        2.8800000000       10.0000000000
 Au         8.6500000000        2.8800000000       10.0000000000
 Au         0.0000000000        5.7700000000       10.0000000000
 Au         2.8800000000        5.7700000000       10.0000000000
 Au         5.7700000000        5.7700000000       10.0000000000
 Au         8.6500000000        5.7700000000       10.0000000000
 Au         0.0000000000        8.6500000000       10.0000000000
 Au         2.8800000000        8.6500000000       10.0000000000
 Au         5.7700000000        8.6500000000       10.0000000000
 Au         8.6500000000        8.6500000000       10.0000000000
 Ne         0.0000000000        0.0000000000       25.0000000000
 Ne         3.1300000000        0.0000000000       25.0000000000
 Ne         6.2600000000        0.0000000000       25.0000000000
 Ne         9.4000000000        0.0000000000       25.0000000000
 Ne         0.0000000000        3.1300000000       25.0000000000
 Ne         3.1300000000        3.1300000000       25.0000000000
 Ne         6.2600000000        3.1300000000       25.0000000000
 Ne         9.4000000000        3.1300000000       25.0000000000
 Ne         0.0000000000        6.2600000000       25.0000000000
 Ne         3.1300000000        6.2600000000       25.0000000000
 Ne         6.2600000000        6.2600000000       25.0000000000
 Ne         9.4000000000        6.2600000000       25.0000000000
 Ne         0.0000000000        9.4000000000       25.0000000000
 Ne         3.1300000000        9.4000000000       25.0000000000
 Ne         6.2600000000        9.4000000000       25.0000000000
 Ne         9.4000000000        9.4000000000       25.0000000000
  O         1.4046533788       10.5042976613       16.9552009548
  H         1.8057190159       10.1678465780       16.1464865036
  H         1.2907550649       11.4687247007       16.7997552804
  O         5.9090123484        4.1858230179       17.2683974288
  H         5.4778080199        5.0758762168       17.2515845293
  H         5.1566751099        3.6122044588       17.4640658598
  O        -0.1012692438        9.0361754437       18.9889261653
  H        -0.5737575695        8.2909155525       19.3579207379
  H         0.7868315489        8.5542500401       18.9015867144
  O         7.3114303302        2.1923597147       16.6906504520
  H         7.2110661000        3.1442892288       16.7268542097
  H         7.4084394244        1.9205352471       17.5826427883
  O         4.5773147064        5.9573478645       12.7516300902
  H         4.0540557231        5.3170225779       12.2309648795
  H         3.9081271992        6.4693002899       13.2235268365
  O         0.3096590158        3.0950495359       16.1720004558
  H         1.2737763541        2.8894107646       16.0332417404
  H        -0.1176424814        2.2437721459       16.3634635127
  O         0.5007916992        5.9522881109       16.8576328092
  H         1.4114093098        6.2969484489       17.0221605903
  H         0.4762160115        5.1425266668       17.3555161375
  O         9.0505822257        4.7704928342       18.2629593209
  H         8.1047099385        4.4876677301       18.4743003993
  H         9.6734632675        3.9747960176       18.1914943323
      56
Lattice="11.540      0.000      0.000      0.000     11.540      0.000      0.000      0.000     35.000" Properties="species:S:1:pos:R:3" Step=16 Time=16.000 Energy=-1227.0114638446
 Au         0.0000000000        0.0000000000       10.0000000000
 Au         2.8800000000        0.0000000000       10.0000000000
 Au         5.7700000000        0.0000000000       10.0000000000
 Au         8.6500000000        0.0000000000       10.0000000000
 Au         0.0000000000        2.8800000000       10.0000000000
 Au         2.8800000000        2.8800000000       10.0000000000
 Au         5.7700000000        2.8800000000       10.0000000000
 Au         8.6500000000        2.8800000000       10.0000000000
 Au         0.0000000000        5.7700000000       10.0000000000
 Au         2.8800000000        5.7700000000       10.0000000000
 Au         5.7700000000        5.7700000000       10.0000000000
 Au         8.6500000000        5.7700000000       10.0000000000
 Au         0.0000000000        8.6500000000       10.0000000000
 Au         2.8800000000        8.6500000000       10.0000000000
 Au         5.7700000000        8.6500000000       10.0000000000
 Au         8.6500000000        8.6500000000       10.0000000000
 Ne         0.0000000000        0.0000000000       25.0000000000
 Ne         3.1300000000        0.0000000000       25.0000000000
 Ne         6.2600000000        0.0000000000       25.0000000000
 Ne         9.4000000000        0.0000000000       25.0000000000
 Ne         0.0000000000        3.1300000000       25.0000000000
 Ne         3.1300000000        3.1300000000       25.0000000000
 Ne         6.2600000000        3.1300000000       25.0000000000
 Ne         9.4000000000        3.1300000000       25.0000000000
 Ne         0.0000000000        6.2600000000       25.0000000000
 Ne         3.1300000000        6.2600000000       25.0000000000
 Ne         6.2600000000        6.2600000000       25.0000000000
 Ne         9.4000000000        6.2600000000       25.0000000000
 Ne         0.0000000000        9.4000000000       25.0000000000
 Ne         3.1300000000        9.4000000000       25.0000000000
 Ne         6.2600000000        9.4000000000       25.0000000000
 Ne         9.4000000000        9.4000000000       25.0000000000
  O         1.4095823762       10.5029083078       16.9520476652
  H         1.8114495474       10.1400477167       16.1326759598
  H         1.2876140374       11.4801677404       16.7997380817
  O         5.9155057460        4.1827972086       17.2713474648
  H         5.4923294310        5.0899602865       17.2553411615
  H         5.1461535847        3.5925986108       17.4688483544
  O        -0.1070365738        9.0370612150       18.9943656347
  H        -0.5935849914        8.2597209345       19.3383023932
  H         0.7912903318        8.5714510817       18.8805045101
  O         7.3127549509        2.1947962628       16.6898183434
  H         7.1594627212        3.1519932880       16.7052609270
  H         7.4477785775        1.9270829103       17.5952508187
  O         4.5727975530        5.9584548558       12.7507254369
  H         4.0411084547        5.2968141924       12.2439976597
  H         3.9136700786        6.5219073402       13.2246046850
  O         0.3163218968        3.0944792713       16.1774915366
  H         1.2836636286        2.8741730659       16.0339059296
  H        -0.1521140592        2.2418320207       16.3609055117
  O         0.5053478117        5.9519864217       16.8571345095
  H         1.4159479904        6.3201905331       17.0289311924
  H         0.4688448287        5.1206684731       17.3579159576
  O         9.0440067696        4.7724145016       18.2596932365
  H         8.0773848115        4.5041856456       18.4745721979
  H         9.6676802628        3.9635844146       18.1835135064
      56
Lattice="11.540      0.000      0.000      0.000     11.540      0.000      0.000      0.000     35.000" Properties="species:S:1:pos:R:3" Step=17 Time=17.000 Energy=-1226.9458749404
 Au         0.0000000000        0.0000000000       10.0000000000
 Au         2.8800000000        0.0000000000       10.0000000000
 Au         5.7700000000        0.0000000000       10.0000000000
 Au         8.6500000000        0.0000000000       10.0000000000
 Au         0.0000000000        2.8800000000       10.0000000000
 Au         2.8800000000        2.8800000000       10.0000000000
 Au         5.7700000000        2.8800000000       10.0000000000
 Au         8.6500000000        2.8800000000       10.0000000000
 Au         0.0000000000        5.7700000000       10.0000000000
 Au         2.8800000000        5.7700000000       10.0000000000
 Au         5.7700000000        5.7700000000       10.0000000000
 Au         8.6500000000        5.7700000000       10.0000000000
 Au         0.0000000000        8.6500000000       10.0000000000
 Au         2.8800000000        8.6500000000       10.0000000000
 Au         5.7700000000        8.6500000000       10.0000000000
 Au         8.6500000000        8.6500000000       10.0000000000
 Ne         0.0000000000        0.0000000000       25.0000000000
 Ne         3.1300000000        0.0000000000       25.0000000000
 Ne         6.2600000000        0.0000000000       25.0000000000
 Ne         9.4000000000        0.0000000000       25.0000000000
 Ne         0.0000000000        3.1300000000       25.0000000000
 Ne         3.1300000000        3.1300000000       25.0000000000
 Ne         6.2600000000        3.1300000000       25.0000000000
 Ne         9.4000000000        3.1300000000       25.0000000000
 Ne         0.0000000000        6.2600000000       25.0000000000
 Ne         3.1300000000        6.2600000000       25.0000000000
 Ne         6.2600000000        6.2600000000       25.0000000000
 Ne         9.4000000000        6.2600000000       25.0000000000
 Ne         0.0000000000        9.4000000000       25.0000000000
 Ne         3.1300000000        9.4000000000       25.0000000000
 Ne         6.2600000000        9.4000000000       25.0000000000
 Ne         9.4000000000        9.4000000000       25.0000000000
  O         1.4147614912       10.5020217680       16.9487715597
  H         1.8138805094       10.1160792706       16.1227958551
  H         1.2874700529       11.4794506232       16.7995813381
  O         5.9209588180        4.1807720535       17.2746397417
  H         5.5129978994        5.0953215260       17.2579256280
  H         5.1420581176        3.5760507478       17.4706619456
  O        -0.1117171515        9.0370531448       18.9997075565
  H        -0.6178739694        8.2311875162       19.3171943581
  H         0.7814380626        8.6020706399       18.8579443185
  O         7.3142955597        2.1967591662       16.6884310953
  H         7.1074614908        3.1625186883       16.6851650335
  H         7.4883622435        1.9311711025       17.6147088399
  O         4.5678404278        5.9594242931       12.7501185732
  H         4.0294347545        5.2801209376       12.2603873737
  H         3.9221967555        6.5701646807       13.2217748766
  O         0.3232580636        3.0932671483       16.1829569894
  H         1.2802740858        2.8591765532       16.0365136080
  H        -0.1820733277        2.2459359329       16.3567210420
  O         0.5107384601        5.9521282221       16.8567459498
  H         1.4107018398        6.3377823089       17.0341655359
  H         0.4618010084        5.0976185560       17.3579776771
  O         9.0372493127        4.7736505370       18.2566202431
  H         8.0724353988        4.5205453253       18.4706580675
  H         9.6422575185        3.9667463807       18.1769064916
      56
Lattice="11.540      0.000      0.000      0.000     11.540      0.000      0.000      0.000     35.000" Properties="species:S:1:pos:R:3" Step=18 Time=18.000 Energy=-1226.8829107181
 Au         0.0000000000        0.0000000000       10.0000000000
 Au         2.8800000000        0.0000000000       10.0000000000
 Au         5.7700000000        0.0000000000       10.0000000000
 Au         8.6500000000        0.0000000000       10.0000000000
 Au         0.0000000000        2.8800000000       10.0000000000
 Au         2.8800000000        2.8800000000       10.0000000000
 Au         5.7700000000        2.8800000000       10.0000000000
 Au         8.6500000000        2.8800000000       10.0000000000
 Au         0.0000000000        5.7700000000       10.0000000000
 Au         2.8800000000        5.7700000000       10.0000000000
 Au         5.7700000000        5.7700000000       10.0000000000
 Au         8.6500000000        5.7700000000       10.0000000000
 Au         0.0000000000        8.6500000000       10.0000000000
 Au         2.8800000000        8.6500000000       10.0000000000
 Au         5.7700000000        8.6500000000       10.0000000000
 Au         8.6500000000        8.6500000000       10.0000000000
 Ne         0.0000000000        0.0000000000       25.0000000000
 Ne         3.1300000000        0.0000000000       25.0000000000
 Ne         6.2600000000        0.0000000000       25.0000000000
 Ne         9.4000000000        0.0000000000       25.0000000000
 Ne         0.0000000000        3.1300000000       25.0000000000
 Ne         3.1300000000        3.1300000000       25.0000000000
 Ne         6.2600000000        3.1300000000       25.0000000000
 Ne         9.4000000000        3.1300000000       25.0000000000
 Ne         0.0000000000        6.2600000000       25.0000000000
 Ne         3.1300000000        6.2600000000       25.0000000000
 Ne         6.2600000000        6.2600000000       25.0000000000
 Ne         9.4000000000        6.2600000000       25.0000000000
 Ne         0.0000000000        9.4000000000       25.0000000000
 Ne         3.1300000000        9.4000000000       25.0000000000
 Ne         6.2600000000        9.4000000000       25.0000000000
 Ne         9.4000000000        9.4000000000       25.0000000000
  O         1.4202810222       10.5014170440       16.9452274800
  H         1.8108967814       10.0988889437       16.1206800248
  H         1.2906686185       11.4668413348       16.7982759881
  O         5.9251707542        4.1795276505       17.2783795227
  H         5.5381742031        5.0919649914       17.2594989621
  H         5.1484311210        3.5663190323       17.4685262501
  O        -0.1160285432        9.0359338318       19.0051507348
  H        -0.6402793547        8.2133812253       19.2920394261
  H         0.7614231536        8.6411010817       18.8343070764
  O         7.3160831704        2.1984020888       16.6870704738
  H         7.0562383403        3.1687821287       16.6672760139
  H         7.5277032704        1.9373350359       17.6307974235
  O         4.5622824535        5.9604169703       12.7499281815
  H         4.0188057923        5.2692033417       12.2825833817
  H         3.9373036352        6.6085727752       13.2114509886
  O         0.3301383018        3.0913093681       16.1884585303
  H         1.2662310056        2.8428933523       16.0405956758
  H        -0.2033438738        2.2590964067       16.3501128591
  O         0.5167146555        5.9522663581       16.8566655426
  H         1.3971986394        6.3493966551       17.0390844225
  H         0.4564325560        5.0812727345       17.3516158362
  O         9.0303010860        4.7744812969       18.2537155513
  H         8.0873457322        4.5363980330       18.4630980023
  H         9.6008708050        3.9805976734       18.1712004250
      56
Lattice="11.540      0.000      0.000      0.000     11.540      0.000      0.000      0.000     35.000" Properties="species:S:1:pos:R:3" Step=19 Time=19.000 Energy=-1226.8195472572
 Au         0.0000000000        0.0000000000       10.0000000000
 Au         2.8800000000        0.0000000000       10.0000000000
 Au         5.7700000000        0.0000000000       10.0000000000
 Au         8.6500000000        0.0000000000       10.0000000000
 Au         0.0000000000        2.8800000000       10.0000000000
 Au         2.8800000000        2.8800000000       10.0000000000
 Au         5.7700000000        2.8800000000       10.0000000000
 Au         8.6500000000        2.8800000000       10.0000000000
 Au         0.0000000000        5.7700000000       10.0000000000
 Au         2.8800000000        5.7700000000       10.0000000000
 Au         5.7700000000        5.7700000000       10.0000000000
 Au         8.6500000000        5.7700000000       10.0000000000
 Au         0.0000000000        8.6500000000       10.0000000000
 Au         2.8800000000        8.6500000000       10.0000000000
 Au         5.7700000000        8.6500000000       10.0000000000
 Au         8.6500000000        8.6500000000       10.0000000000
 Ne         0.0000000000        0.0000000000       25.0000000000
 Ne         3.1300000000        0.0000000000       25.0000000000
 Ne         6.2600000000        0.0000000000       25.0000000000
 Ne         9.4000000000        0.0000000000       25.0000000000
 Ne         0.0000000000        3.1300000000       25.0000000000
 Ne         3.1300000000        3.1300000000       25.0000000000
 Ne         6.2600000000        3.1300000000       25.0000000000
 Ne         9.4000000000        3.1300000000       25.0000000000
 Ne         0.0000000000        6.2600000000       25.0000000000
 Ne         3.1300000000        6.2600000000       25.0000000000
 Ne         6.2600000000        6.2600000000       25.0000000000
 Ne         9.4000000000        6.2600000000       25.0000000000
 Ne         0.0000000000        9.4000000000       25.0000000000
 Ne         3.1300000000        9.4000000000       25.0000000000
 Ne         6.2600000000        9.4000000000       25.0000000000
 Ne         9.4000000000        9.4000000000       25.0000000000
  O         1.4261828203       10.5007497623       16.9414506477
  H         1.8019426727       10.0904681000       16.1274425791
  H         1.2969138552       11.4468192845       16.7946431969
  O         5.9282063996        4.1788151110       17.2826238245
  H         5.5663596395        5.0823849104       17.2601076893
  H         5.1657044285        3.5649371768       17.4623667812
  O        -0.1208284909        9.0337493951       19.0108920261
  H        -0.6551599443        8.2106389648       19.2626338472
  H         0.7398985073        8.6827044639       18.8098560393
  O         7.3181468903        2.1999035761       16.6862076280
  H         7.0093503001        3.1642994570       16.6522508495
  H         7.5644799978        1.9491541865       17.6350508299
  O         4.5561604404        5.9615244258       12.7502055386
  H         4.0086402065        5.2654615815       12.3115438397
  H         3.9603017358        6.6354431123       13.1923312174
  O         0.3365807850        3.0887263759       16.1940567093
  H         1.2467758008        2.8238762442       16.0450291327
  H        -0.2145220808        2.2810701358       16.3408992020
  O         0.5228703008        5.9520342933       16.8569637486
  H         1.3792901318        6.3563170479       17.0452706219
  H         0.4537374272        5.0760418209       17.3364208243
  O         9.0232532014        4.7755440618       18.2509310441
  H         8.1145863553        4.5502053401       18.4536995108
  H         9.5520349633        3.9960519759       18.1653248818
      56
Lattice="11.540      0.000      0.000      0.000     11.540      0.000      0.000      0.000     35.000" Properties="species:S:1:pos:R:3" Step=20 Time=20.000 Energy=-1226.7519512644
 Au         0.0000000000        0.0000000000       10.0000000000
 Au         2.8800000000        0.0000000000       10.0000000000
 Au         5.7700000000        0.0000000000       10.0000000000
 Au         8.6500000000        0.0000000000       10.0000000000
 Au         0.0000000000        2.8800000000       10.0000000000
 Au         2.8800000000        2.8800000000       10.0000000000
 Au         5.7700000000        2.8800000000       10.0000000000
 Au         8.6500000000        2.8800000000       10.0000000000
 Au         0.0000000000        5.7700000000       10.0000000000
 Au         2.8800000000        5.7700000000       10.0000000000
 Au         5.7700000000        5.7700000000       10.0000000000
 Au         8.6500000000        5.7700000000       10.0000000000
 Au         0.0000000000        8.6500000000       10.0000000000
 Au         2.8800000000        8.6500000000       10.0000000000
 Au         5.7700000000        8.6500000000       10.0000000000
 Au         8.6500000000        8.6500000000       10.0000000000
 Ne         0.0000000000        0.0000000000       25.0000000000
 Ne         3.1300000000        0.0000000000       25.0000000000
 Ne         6.2600000000        0.0000000000       25.0000000000
 Ne         9.4000000000        0.0000000000       25.0000000000
 Ne         0.0000000000        3.1300000000       25.0000000000
 Ne         3.1300000000        3.1300000000       25.0000000000
 Ne         6.2600000000        3.1300000000       25.0000000000
 Ne         9.4000000000        3.1300000000       25.0000000000
 Ne         0.0000000000        6.2600000000       25.0000000000
 Ne         3.1300000000        6.2600000000       25.0000000000
 Ne         6.2600000000        6.2600000000       25.0000000000
 Ne         9.4000000000        6.2600000000       25.0000000000
 Ne         0.0000000000        9.4000000000       25.0000000000
 Ne         3.1300000000        9.4000000000       25.0000000000
 Ne         6.2600000000        9.4000000000       25.0000000000
 Ne         9.4000000000        9.4000000000       25.0000000000
  O         1.4323761121       10.4995543687       16.9378322461
  H         1.7892945178       10.0891795948       16.1389766799
  H         1.3049375244       11.4286848410       16.7871230239
  O         5.9305933442        4.1783354988       17.2873471444
  H         5.5945390426        5.0734230971       17.2596418611
  H         5.1889192756        3.5695359492       17.4535501673
  O        -0.1269344138        9.0309886533       19.0170987286
  H        -0.6612213152        8.2211761820       19.2295405742
  H         0.7294728353        8.7220260822       18.7827464408
  O         7.3205056823        2.2013013344       16.6859291719
  H         6.9670100869        3.1479463584       16.6410070718
  H         7.5959754558        1.9680574324       17.6249098581
  O         4.5498429695        5.9627384679       12.7509210884
  H         3.9967872242        5.2671349624       12.3445160454
  H         3.9882850244        6.6517485764       13.1657931367
  O         0.3422203971        3.0860260370       16.1997934703
  H         1.2310168190        2.8004154280       16.0478996050
  H        -0.2189045155        2.3066795253       16.3297197550
  O         0.5286249328        5.9513008703       16.8574433485
  H         1.3640039839        6.3618443659       17.0550103126
  H         0.4540989713        5.0806580608       17.3139116902
  O         9.0164610607        4.7779101293       18.2481562194
  H         8.1374116736        4.5587647840       18.4460354426
  H         9.5058236290        3.9982856600       18.1573880579
      56
Lattice="11.540      0.000      0.000      0.000     11.540      0.000      0.000      0.000     35.000" Properties="species:S:1:pos:R:3" Step=21 Time=21.000 Energy=-1226.6854064275
 Au         0.0000000000        0.0000000000       10.0000000000
 Au         2.8800000000        0.0000000000       10.0000000000
 Au         5.7700000000        0.0000000000       10.0000000000
 Au         8.6500000000        0.0000000000       10.0000000000
 Au         0.0000000000        2.8800000000       10.0000000000
 Au         2.8800000000        2.8800000000       10.0000000000
 Au         5.7700000000        2.8800000000       10.0000000000
 Au         8.6500000000        2.8800000000       10.0000000000
 Au         0.0000000000        5.7700000000       10.0000000000
 Au         2.8800000000        5.7700000000       10.0000000000
 Au         5.7700000000        5.7700000000       10.0000000000
 Au         8.6500000000        5.7700000000       10.0000000000
 Au         0.0000000000        8.6500000000       10.0000000000
 Au         2.8800000000        8.6500000000       10.0000000000
 Au         5.7700000000        8.6500000000       10.0000000000
 Au         8.6500000000        8.6500000000       10.0000000000
 Ne         0.0000000000        0.0000000000       25.0000000000
 Ne         3.1300000000        0.0000000000       25.0000000000
 Ne         6.2600000000        0.0000000000       25.0000000000
 Ne         9.4000000000        0.0000000000       25.0000000000
 Ne         0.0000000000        3.1300000000       25.0000000000
 Ne         3.1300000000        3.1300000000       25.0000000000
 Ne         6.2600000000        3.1300000000       25.0000000000
 Ne         9.4000000000        3.1300000000       25.0000000000
 Ne         0.0000000000        6.2600000000       25.0000000000
 Ne         3.1300000000        6.2600000000       25.0000000000
 Ne         6.2600000000        6.2600000000       25.0000000000
 Ne         9.4000000000        6.2600000000       25.0000000000
 Ne         0.0000000000        9.4000000000       25.0000000000
 Ne         3.1300000000        9.4000000000       25.0000000000
 Ne         6.2600000000        9.4000000000       25.0000000000
 Ne         9.4000000000        9.4000000000       25.0000000000
  O         1.4386986584       10.4975836023       16.9348537599
  H         1.7765785705       10.0913399088       16.1486312926
  H         1.3134557014       11.4191731180       16.7745895760
  O         5.9329601431        4.1779511137       17.2924830867
  H         5.6187106223        5.0711172106       17.2579171537
  H         5.2116875409        3.5761310505       17.4441775081
  O        -0.1345028193        9.0281666682       19.0238207345
  H        -0.6603571336        8.2394275863       19.1928282883
  H         0.7343856628        8.7555837185       18.7505147329
  O         7.3231470620        2.2025988483       16.6861089014
  H         6.9319523437        3.1207194206       16.6343858308
  H         7.6211275846        1.9945585273       17.6012562800
  O         4.5437985322        5.9638787307       12.7519445443
  H         3.9814292714        5.2717903782       12.3790373825
  H         4.0151447607        6.6618834821       13.1341611833
  O         0.3470300833        3.0837595133       16.2056717742
  H         1.2251676441        2.7715972768       16.0479214010
  H        -0.2215501086        2.3304057208       16.3172322096
  O         0.5335926922        5.9501904759       16.8578291115
  H         1.3562936197        6.3685411728       17.0701600086
  H         0.4574774904        5.0909345478       17.2880749177
  O         9.0104766480        4.7822944975       18.2453197651
  H         8.1381635251        4.5595269487       18.4435461663
  H         9.4712905039        3.9779990927       18.1459315072
      56
Lattice="11.540      0.000      0.000      0.000     11.540      0.000      0.000      0.000     35.000" Properties="species:S:1:pos:R:3" Step=22 Time=22.000 Energy=-1226.6201847885
 Au         0.0000000000        0.0000000000       10.0000000000
 Au         2.8800000000        0.0000000000       10.0000000000
 Au         5.7700000000        0.0000000000       10.0000000000
 Au         8.6500000000        0.0000000000       10.0000000000
 Au         0.0000000000        2.8800000000       10.0000000000
 Au         2.8800000000        2.8800000000       10.0000000000
 Au         5.7700000000        2.8800000000       10.0000000000
 Au         8.6500000000        2.8800000000       10.0000000000
 Au         0.0000000000        5.7700000000       10.0000000000
 Au         2.8800000000        5.7700000000       10.0000000000
 Au         5.7700000000        5.7700000000       10.0000000000
 Au         8.6500000000        5.7700000000       10.0000000000
 Au         0.0000000000        8.6500000000       10.0000000000
 Au         2.8800000000        8.6500000000       10.0000000000
 Au         5.7700000000        8.6500000000       10.0000000000
 Au         8.6500000000        8.6500000000       10.0000000000
 Ne         0.0000000000        0.0000000000       25.0000000000
 Ne         3.1300000000        0.0000000000       25.0000000000
 Ne         6.2600000000        0.0000000000       25.0000000000
 Ne         9.4000000000        0.0000000000       25.0000000000
 Ne         0.0000000000        3.1300000000       25.0000000000
 Ne         3.1300000000        3.1300000000       25.0000000000
 Ne         6.2600000000        3.1300000000       25.0000000000
 Ne         9.4000000000        3.1300000000       25.0000000000
 Ne         0.0000000000        6.2600000000       25.0000000000
 Ne         3.1300000000        6.2600000000       25.0000000000
 Ne         6.2600000000        6.2600000000       25.0000000000
 Ne         9.4000000000        6.2600000000       25.0000000000
 Ne         0.0000000000        9.4000000000       25.0000000000
 Ne         3.1300000000        9.4000000000       25.0000000000
 Ne         6.2600000000        9.4000000000       25.0000000000
 Ne         9.4000000000        9.4000000000       25.0000000000
  O         1.4449218555       10.4949053620       16.9330378453
  H         1.7680480905       10.0917906123       16.1477539361
  H         1.3214838066       11.4212970693       16.7567382173
  O         5.9360213910        4.1777861840       17.2979271291
  H         5.6358543552        5.0793705747       17.2547121073
  H         5.2256705221        3.5789208961       17.4368528910
  O        -0.1427582525        9.0259829035       19.0308888376
  H        -0.6588688261        8.2532005412       19.1557733158
  H         0.7480198941        8.7847199610       18.7135603552
  O         7.3260110432        2.2036800310       16.6862558410
  H         6.9035337158        3.0865296622       16.6324116539
  H         7.6427244893        2.0269458048       17.5708408839
  O         4.5387040195        5.9645747397       12.7530576128
  H         3.9608099391        5.2759570551       12.4146399681
  H         4.0335275365        6.6747545605       13.1030301267
  O         0.3514374593        3.0824316947       16.2116490882
  H         1.2297563919        2.7368901348       16.0449141174
  H        -0.2290046144        2.3456033369       16.3040921142
  O         0.5376741307        5.9492141148       16.8577665922
  H         1.3579549208        6.3774917889       17.0914211608
  H         0.4633334426        5.0982710606       17.2641663817
  O         9.0056343991        4.7883669198       18.2423917862
  H         8.1121977626        4.5529736579       18.4471573758
  H         9.4469201497        3.9399624938       18.1313960909
      56
Lattice="11.540      0.000      0.000      0.000     11.540      0.000      0.000      0.000     35.000" Properties="species:S:1:pos:R:3" Step=23 Time=23.000 Energy=-1226.5542315948
 Au         0.0000000000        0.0000000000       10.0000000000
 Au         2.8800000000        0.0000000000       10.0000000000
 Au         5.7700000000        0.0000000000       10.0000000000
 Au         8.6500000000        0.0000000000       10.0000000000
 Au         0.0000000000        2.8800000000       10.0000000000
 Au         2.8800000000        2.8800000000       10.0000000000
 Au         5.7700000000        2.8800000000       10.0000000000
 Au         8.6500000000        2.8800000000       10.0000000000
 Au         0.0000000000        5.7700000000       10.0000000000
 Au         2.8800000000        5.7700000000       10.0000000000
 Au         5.7700000000        5.7700000000       10.0000000000
 Au         8.6500000000        5.7700000000       10.0000000000
 Au         0.0000000000        8.6500000000       10.0000000000
 Au         2.8800000000        8.6500000000       10.0000000000
 Au         5.7700000000        8.6500000000       10.0000000000
 Au         8.6500000000        8.6500000000       10.0000000000
 Ne         0.0000000000        0.0000000000       25.0000000000
 Ne         3.1300000000        0.0000000000       25.0000000000
 Ne         6.2600000000        0.0000000000       25.0000000000
 Ne         9.4000000000        0.0000000000       25.0000000000
 Ne         0.0000000000        3.1300000000       25.0000000000
 Ne         3.1300000000        3.1300000000       25.0000000000
 Ne         6.2600000000        3.1300000000       25.0000000000
 Ne         9.4000000000        3.1300000000       25.0000000000
 Ne         0.0000000000        6.2600000000       25.0000000000
 Ne         3.1300000000        6.2600000000       25.0000000000
 Ne         6.2600000000        6.2600000000       25.0000000000
 Ne         9.4000000000        6.2600000000       25.0000000000
 Ne         0.0000000000        9.4000000000       25.0000000000
 Ne         3.1300000000        9.4000000000       25.0000000000
 Ne         6.2600000000        9.4000000000       25.0000000000
 Ne         9.4000000000        9.4000000000       25.0000000000
  O         1.4509315907       10.4918555028       16.9325722814
  H         1.7656666016       10.0875124250       16.1321665329
  H         1.3288301041       11.4321408462       16.7349905602
  O         5.9402130674        4.1781880290       17.3035940467
  H         5.6459795672        5.0967629319       17.2499305787
  H         5.2245086279        3.5740713904       17.4332777941
  O        -0.1505300602        9.0251472691       19.0380649562
  H        -0.6640808723        8.2490439954       19.1207930843
  H         0.7581221535        8.8133020752       18.6770421191
  O         7.3290122157        2.2042962175       16.6855929746
  H         6.8781696378        3.0520100657       16.6340947772
  H         7.6657684994        2.0607127163       17.5469912634
  O         4.5350126748        5.9644895243       12.7540924344
  H         3.9339860823        5.2768638432       12.4498187779
  H         4.0391349996        6.6984770365       13.0776052006
  O         0.3561066791        3.0821577255       16.2176782944
  H         1.2387899534        2.6978936887       16.0400537063
  H        -0.2456201763        2.3483001698       16.2904685905
  O         0.5410795962        5.9490720391       16.8570005408
  H         1.3658730684        6.3872005739       17.1171963454
  H         0.4711392796        5.0933618703       17.2458347766
  O         9.0015520886        4.7949294250       18.2395137493
  H         8.0728114716        4.5435221571       18.4542087707
  H         9.4247566986        3.8985401214       18.1160738700
      56
Lattice="11.540      0.000      0.000      0.000     11.540      0.000      0.000      0.000     35.000" Properties="species:S:1:pos:R:3" Step=24 Time=24.000 Energy=-1226.4883387351
 Au         0.0000000000        0.0000000000       10.0000000000
 Au         2.8800000000        0.0000000000       10.0000000000
 Au         5.7700000000        0.0000000000       10.0000000000
 Au         8.6500000000        0.0000000000       10.0000000000
 Au         0.0000000000        2.8800000000       10.0000000000
 Au         2.8800000000        2.8800000000       10.0000000000
 Au         5.7700000000        2.8800000000       10.0000000000
 Au         8.6500000000        2.8800000000       10.0000000000
 Au         0.0000000000        5.7700000000       10.0000000000
 Au         2.8800000000        5.7700000000       10.0000000000
 Au         5.7700000000        5.7700000000       10.0000000000
 Au         8.6500000000        5.7700000000       10.0000000000
 Au         0.0000000000        8.6500000000       10.0000000000
 Au         2.8800000000        8.6500000000       10.0000000000
 Au         5.7700000000        8.6500000000       10.0000000000
 Au         8.6500000000        8.6500000000       10.0000000000
 Ne         0.0000000000        0.0000000000       25.0000000000
 Ne         3.1300000000        0.0000000000       25.0000000000
 Ne         6.2600000000        0.0000000000       25.0000000000
 Ne         9.4000000000        0.0000000000       25.0000000000
 Ne         0.0000000000        3.1300000000       25.0000000000
 Ne         3.1300000000        3.1300000000       25.0000000000
 Ne         6.2600000000        3.1300000000       25.0000000000
 Ne         9.4000000000        3.1300000000       25.0000000000
 Ne         0.0000000000        6.2600000000       25.0000000000
 Ne         3.1300000000        6.2600000000       25.0000000000
 Ne         6.2600000000        6.2600000000       25.0000000000
 Ne         9.4000000000        6.2600000000       25.0000000000
 Ne         0.0000000000        9.4000000000       25.0000000000
 Ne         3.1300000000        9.4000000000       25.0000000000
 Ne         6.2600000000        9.4000000000       25.0000000000
 Ne         9.4000000000        9.4000000000       25.0000000000
  O         1.4567947475       10.4888008871       16.9330316549
  H         1.7675960979       10.0803196974       16.1068021894
  H         1.3360158055       11.4441447484       16.7126622589
  O         5.9453233539        4.1794271332       17.3094686955
  H         5.6511159220        5.1165845815       17.2437293700
  H         5.2099543554        3.5641874086       17.4332127763
  O        -0.1571811221        9.0257732301       19.0452468435
  H        -0.6766864154        8.2246349719       19.0852265061
  H         0.7546185361        8.8429726104       18.6445115147
  O         7.3321118001        2.2041041483       16.6835183036
  H         6.8525566606        3.0261573404       16.6379964698
  H         7.6940964548        2.0933031275       17.5414761091
  O         4.5326223135        5.9636514374       12.7550727721
  H         3.9013010550        5.2747415165       12.4831669529
  H         4.0336893075        6.7333305239       13.0566327232
  O         0.3614649487        3.0824457925       16.2237501396
  H         1.2436997090        2.6598661622       16.0353008206
  H        -0.2697784450        2.3423190636       16.2760055361
  O         0.5441950825        5.9501233040       16.8555932487
  H         1.3737778814        6.3941170108       17.1446127911
  H         0.4811260631        5.0736668918       17.2332795853
  O         8.9974833155        4.8007151012       18.2368671143
  H         8.0362248464        4.5367582183       18.4609346910
  H         9.3986777121        3.8660646996       18.1022003937
      56
Lattice="11.540      0.000      0.000      0.000     11.540      0.000      0.000      0.000     35.000" Properties="species:S:1:pos:R:3" Step=25 Time=25.000 Energy=-1226.4225594316
 Au         0.0000000000        0.0000000000       10.0000000000
 Au         2.8800000000        0.0000000000       10.0000000000
 Au         5.7700000000        0.0000000000       10.0000000000
 Au         8.6500000000        0.0000000000       10.0000000000
 Au         0.0000000000        2.8800000000       10.0000000000
 Au         2.8800000000        2.8800000000       10.0000000000
 Au         5.7700000000        2.8800000000       10.0000000000
 Au         8.6500000000        2.8800000000       10.0000000000
 Au         0.0000000000        5.7700000000       10.0000000000
 Au         2.8800000000        5.7700000000       10.0000000000
 Au         5.7700000000        5.7700000000       10.0000000000
 Au         8.6500000000        5.7700000000       10.0000000000
 Au         0.0000000000        8.6500000000       10.0000000000
 Au         2.8800000000        8.6500000000       10.0000000000
 Au         5.7700000000        8.6500000000       10.0000000000
 Au         8.6500000000        8.6500000000       10.0000000000
 Ne         0.0000000000        0.0000000000       25.0000000000
 Ne         3.1300000000        0.0000000000       25.0000000000
 Ne         6.2600000000        0.0000000000       25.0000000000
 Ne         9.4000000000        0.0000000000       25.0000000000
 Ne         0.0000000000        3.1300000000       25.0000000000
 Ne         3.1300000000        3.1300000000       25.0000000000
 Ne         6.2600000000        3.1300000000       25.0000000000
 Ne         9.4000000000        3.1300000000       25.0000000000
 Ne         0.0000000000        6.2600000000       25.0000000000
 Ne         3.1300000000        6.2600000000       25.0000000000
 Ne         6.2600000000        6.2600000000       25.0000000000
 Ne         9.4000000000        6.2600000000       25.0000000000
 Ne         0.0000000000        9.4000000000       25.0000000000
 Ne         3.1300000000        9.4000000000       25.0000000000
 Ne         6.2600000000        9.4000000000       25.0000000000
 Ne         9.4000000000        9.4000000000       25.0000000000
  O         1.4626710678       10.4860358456       16.9335095173
  H         1.7695473684       10.0754979002       16.0823479107
  H         1.3438355156       11.4476075997       16.6933049681
  O         5.9505302470        4.1815679132       17.3155511817
  H         5.6540708744        5.1284897882       17.2365730896
  H         5.1913995591        3.5580864206       17.4350019512
  O        -0.1628373860        9.0270922023       19.0523953975
  H        -0.6885998324        8.1927534584       19.0472200795
  H         0.7317396664        8.8731165600       18.6172349944
  O         7.3354691686        2.2029287896       16.6802438597
  H         6.8266513419        3.0116296949       16.6430842081
  H         7.7257122534        2.1265184907       17.5512221749
  O         4.5307852843        5.9624379789       12.7561521243
  H         3.8660456947        5.2743415487       12.5175029493
  H         4.0244746811        6.7691201025       13.0343395080
  O         0.3675402201        3.0823425532       16.2298687389
  H         1.2365611178        2.6267129482       16.0327375537
  H        -0.2934289048        2.3381796854       16.2605924439
  O         0.5474299285        5.9520628164       16.8539849010
  H         1.3745507574        6.3939413774       17.1718204281
  H         0.4942821288        5.0471114009       17.2222684375
  O         8.9927136465        4.8047050564       18.2345806557
  H         8.0160961811        4.5374720984       18.4641307618
  H         9.3662838886        3.8540051530       18.0910719855
      56
Lattice="11.540      0.000      0.000      0.000     11.540      0.000      0.000      0.000     35.000" Properties="species:S:1:pos:R:3" Step=26 Time=26.000 Energy=-1226.3585546183
 Au         0.0000000000        0.0000000000       10.0000000000
 Au         2.8800000000        0.0000000000       10.0000000000
 Au         5.7700000000        0.0000000000       10.0000000000
 Au         8.6500000000        0.0000000000       10.0000000000
 Au         0.0000000000        2.8800000000       10.0000000000
 Au         2.8800000000        2.8800000000       10.0000000000
 Au         5.7700000000        2.8800000000       10.0000000000
 Au         8.6500000000        2.8800000000       10.0000000000
 Au         0.0000000000        5.7700000000       10.0000000000
 Au         2.8800000000        5.7700000000       10.0000000000
 Au         5.7700000000        5.7700000000       10.0000000000
 Au         8.6500000000        5.7700000000       10.0000000000
 Au         0.0000000000        8.6500000000       10.0000000000
 Au         2.8800000000        8.6500000000       10.0000000000
 Au         5.7700000000        8.6500000000       10.0000000000
 Au         8.6500000000        8.6500000000       10.0000000000
 Ne         0.0000000000        0.0000000000       25.0000000000
 Ne         3.1300000000        0.0000000000       25.0000000000
 Ne         6.2600000000        0.0000000000       25.0000000000
 Ne         9.4000000000        0.0000000000       25.0000000000
 Ne         0.0000000000        3.1300000000       25.0000000000
 Ne         3.1300000000        3.1300000000       25.0000000000
 Ne         6.2600000000        3.1300000000       25.0000000000
 Ne         9.4000000000        3.1300000000       25.0000000000
 Ne         0.0000000000        6.2600000000       25.0000000000
 Ne         3.1300000000        6.2600000000       25.0000000000
 Ne         6.2600000000        6.2600000000       25.0000000000
 Ne         9.4000000000        6.2600000000       25.0000000000
 Ne         0.0000000000        9.4000000000       25.0000000000
 Ne         3.1300000000        9.4000000000       25.0000000000
 Ne         6.2600000000        9.4000000000       25.0000000000
 Ne         9.4000000000        9.4000000000       25.0000000000
  O         1.4686455885       10.4835028763       16.9335417977
  H         1.7694833018       10.0751712177       16.0636289756
  H         1.3519403323       11.4413049871       16.6775930192
  O         5.9553488767        4.1843858236       17.3218341598
  H         5.6556212434        5.1302403576       17.2285809597
  H         5.1742318402        3.5605910912       17.4376422052
  O        -0.1681566749        9.0285108998       19.0596029708
  H        -0.6941038849        8.1630574721       19.0080300059
  H         0.6952695426        8.9027963282       18.5939729026
  O         7.3393262290        2.2006770528       16.6762312229
  H         6.8000696559        3.0088239313       16.6486823079
  H         7.7579804359        2.1607975017       17.5679282106
  O         4.5289932170        5.9612027994       12.7574318697
  H         3.8318049462        5.2777493633       12.5543004817
  H         4.0165945167        6.7968776836       13.0076579072
  O         0.3740432020        3.0814227856       16.2361070745
  H         1.2184317787        2.5979134396       16.0324619685
  H        -0.3113656431        2.3414440384       16.2449892931
  O         0.5507531615        5.9543679386       16.8524133262
  H         1.3683829260        6.3871029290       17.1996620233
  H         0.5108364330        5.0205370125       17.2098608066
  O         8.9869487352        4.8068100737       18.2326914222
  H         8.0154745840        4.5469801984       18.4633041434
  H         9.3296879824        3.8625729747       18.0821645800
      56
Lattice="11.540      0.000      0.000      0.000     11.540      0.000      0.000      0.000     35.000" Properties="species:S:1:pos:R:3" Step=27 Time=27.000 Energy=-1226.2984151291
 Au         0.0000000000        0.0000000000       10.0000000000
 Au         2.8800000000        0.0000000000       10.0000000000
 Au         5.7700000000        0.0000000000       10.0000000000
 Au         8.6500000000        0.0000000000       10.0000000000
 Au         0.0000000000        2.8800000000       10.0000000000
 Au         2.8800000000        2.8800000000       10.0000000000
 Au         5.7700000000        2.8800000000       10.0000000000
 Au         8.6500000000        2.8800000000       10.0000000000
 Au         0.0000000000        5.7700000000       10.0000000000
 Au         2.8800000000        5.7700000000       10.0000000000
 Au         5.7700000000        5.7700000000       10.0000000000
 Au         8.6500000000        5.7700000000       10.0000000000
 Au         0.0000000000        8.6500000000       10.0000000000
 Au         2.8800000000        8.6500000000       10.0000000000
 Au         5.7700000000        8.6500000000       10.0000000000
 Au         8.6500000000        8.6500000000       10.0000000000
 Ne         0.0000000000        0.0000000000       25.0000000000
 Ne         3.1300000000        0.0000000000       25.0000000000
 Ne         6.2600000000        0.0000000000       25.0000000000
 Ne         9.4000000000        0.0000000000       25.0000000000
 Ne         0.0000000000        3.1300000000       25.0000000000
 Ne         3.1300000000        3.1300000000       25.0000000000
 Ne         6.2600000000        3.1300000000       25.0000000000
 Ne         9.4000000000        3.1300000000       25.0000000000
 Ne         0.0000000000        6.2600000000       25.0000000000
 Ne         3.1300000000        6.2600000000       25.0000000000
 Ne         6.2600000000        6.2600000000       25.0000000000
 Ne         9.4000000000        6.2600000000       25.0000000000
 Ne         0.0000000000        9.4000000000       25.0000000000
 Ne         3.1300000000        9.4000000000       25.0000000000
 Ne         6.2600000000        9.4000000000       25.0000000000
 Ne         9.4000000000        9.4000000000       25.0000000000
  O         1.4748223385       10.4811693649       16.9326174546
  H         1.7655768019       10.0811408737       16.0568953854
  H         1.3600558735       11.4239199481       16.6661631602
  O         5.9592305551        4.1876790299       17.3283161687
  H         5.6567727209        5.1199028467       17.2200187175
  H         5.1644675854        3.5767717463       17.4402172044
  O        -0.1737940124        9.0293295615       19.0668693931
  H        -0.6875237776        8.1461976660       18.9672503931
  H         0.6500004816        8.9327451826       18.5736393871
  O         7.3437842787        2.1977513073       16.6722886366
  H         6.7766240796        3.0102046215       16.6545074177
  H         7.7857124816        2.1953808478       17.5769507062
  O         4.5266173224        5.9601750754       12.7589471909
  H         3.8042371123        5.2885827450       12.5927098654
  H         4.0149397927        6.8096553099       12.9758385251
  O         0.3806505960        3.0792787553       16.2425034237
  H         1.1913841133        2.5747068184       16.0344499150
  H        -0.3189091910        2.3574460052       16.2299100762
  O         0.5542046874        5.9563597705       16.8512032332
  H         1.3545798192        6.3740631312       17.2269115573
  H         0.5300709905        5.0048878550       17.1924592302
  O         8.9799961964        4.8071401934       18.2312290746
  H         8.0338011297        4.5659760522       18.4587234609
  H         9.2904205531        3.8886201085       18.0743740135
      56
Lattice="11.540      0.000      0.000      0.000     11.540      0.000      0.000      0.000     35.000" Properties="species:S:1:pos:R:3" Step=28 Time=28.000 Energy=-1226.2368230494
 Au         0.0000000000        0.0000000000       10.0000000000
 Au         2.8800000000        0.0000000000       10.0000000000
 Au         5.7700000000        0.0000000000       10.0000000000
 Au         8.6500000000        0.0000000000       10.0000000000
 Au         0.0000000000        2.8800000000       10.0000000000
 Au         2.8800000000        2.8800000000       10.0000000000
 Au         5.7700000000        2.8800000000       10.0000000000
 Au         8.6500000000        2.8800000000       10.0000000000
 Au         0.0000000000        5.7700000000       10.0000000000
 Au         2.8800000000        5.7700000000       10.0000000000
 Au         5.7700000000        5.7700000000       10.0000000000
 Au         8.6500000000        5.7700000000       10.0000000000
 Au         0.0000000000        8.6500000000       10.0000000000
 Au         2.8800000000        8.6500000000       10.0000000000
 Au         5.7700000000        8.6500000000       10.0000000000
 Au         8.6500000000        8.6500000000       10.0000000000
 Ne         0.0000000000        0.0000000000       25.0000000000
 Ne         3.1300000000        0.0000000000       25.0000000000
 Ne         6.2600000000        0.0000000000       25.0000000000
 Ne         9.4000000000        0.0000000000       25.0000000000
 Ne         0.0000000000        3.1300000000       25.0000000000
 Ne         3.1300000000        3.1300000000       25.0000000000
 Ne         6.2600000000        3.1300000000       25.0000000000
 Ne         9.4000000000        3.1300000000       25.0000000000
 Ne         0.0000000000        6.2600000000       25.0000000000
 Ne         3.1300000000        6.2600000000       25.0000000000
 Ne         6.2600000000        6.2600000000       25.0000000000
 Ne         9.4000000000        6.2600000000       25.0000000000
 Ne         0.0000000000        9.4000000000       25.0000000000
 Ne         3.1300000000        9.4000000000       25.0000000000
 Ne         6.2600000000        9.4000000000       25.0000000000
 Ne         9.4000000000        9.4000000000       25.0000000000
  O         1.4812151690       10.4787846894       16.9307701988
  H         1.7585738252       10.0914435197       16.0617455743
  H         1.3671376653       11.4007936178       16.6582224571
  O         5.9621100406        4.1911372482       17.3350508538
  H         5.6569352336        5.1033325634       17.2105969390
  H         5.1627318209        3.6064027552       17.4427523534
  O        -0.1804048492        9.0293288874       19.0743862887
  H        -0.6682374854        8.1462072678       18.9265722177
  H         0.6061942008        8.9624681814       18.5506680022
  O         7.3487789236        2.1945325485       16.6688064709
  H         6.7598479328        3.0101763529       16.6601590824
  H         7.8050792285        2.2303656354       17.5714147946
  O         4.5235213153        5.9593898732       12.7606655875
  H         3.7835855306        5.3062148169       12.6323236771
  H         4.0204563259        6.8082374367       12.9405903507
  O         0.3870142886        3.0761541039       16.2491437142
  H         1.1640787569        2.5549219464       16.0370361150
  H        -0.3179804876        2.3847702069       16.2156060173
  O         0.5575665455        5.9576344473       16.8503638473
  H         1.3374446257        6.3582858328       17.2535863543
  H         0.5500693456        5.0035368384       17.1697902322
  O         8.9720818641        4.8065798086       18.2301852992
  H         8.0600048060        4.5921829804       18.4530860112
  H         9.2552837036        3.9186470266       18.0649494496
      56
Lattice="11.540      0.000      0.000      0.000     11.540      0.000      0.000      0.000     35.000" Properties="species:S:1:pos:R:3" Step=29 Time=29.000 Energy=-1226.1730742637
 Au         0.0000000000        0.0000000000       10.0000000000
 Au         2.8800000000        0.0000000000       10.0000000000
 Au         5.7700000000        0.0000000000       10.0000000000
 Au         8.6500000000        0.0000000000       10.0000000000
 Au         0.0000000000        2.8800000000       10.0000000000
 Au         2.8800000000        2.8800000000       10.0000000000
 Au         5.7700000000        2.8800000000       10.0000000000
 Au         8.6500000000        2.8800000000       10.0000000000
 Au         0.0000000000        5.7700000000       10.0000000000
 Au         2.8800000000        5.7700000000       10.0000000000
 Au         5.7700000000        5.7700000000       10.0000000000
 Au         8.6500000000        5.7700000000       10.0000000000
 Au         0.0000000000        8.6500000000       10.0000000000
 Au         2.8800000000        8.6500000000       10.0000000000
 Au         5.7700000000        8.6500000000       10.0000000000
 Au         8.6500000000        8.6500000000       10.0000000000
 Ne         0.0000000000        0.0000000000       25.0000000000
 Ne         3.1300000000        0.0000000000       25.0000000000
 Ne         6.2600000000        0.0000000000       25.0000000000
 Ne         9.4000000000        0.0000000000       25.0000000000
 Ne         0.0000000000        3.1300000000       25.0000000000
 Ne         3.1300000000        3.1300000000       25.0000000000
 Ne         6.2600000000        3.1300000000       25.0000000000
 Ne         9.4000000000        3.1300000000       25.0000000000
 Ne         0.0000000000        6.2600000000       25.0000000000
 Ne         3.1300000000        6.2600000000       25.0000000000
 Ne         6.2600000000        6.2600000000       25.0000000000
 Ne         9.4000000000        6.2600000000       25.0000000000
 Ne         0.0000000000        9.4000000000       25.0000000000
 Ne         3.1300000000        9.4000000000       25.0000000000
 Ne         6.2600000000        9.4000000000       25.0000000000
 Ne         9.4000000000        9.4000000000       25.0000000000
  O         1.4877757055       10.4759985206       16.9284695134
  H         1.7509871196       10.1012190610       16.0717843556
  H         1.3717067999       11.3815733156       16.6520061567
  O         5.9643275642        4.1944658757       17.3420238538
  H         5.6546283825        5.0902501409       17.1995458351
  H         5.1646577709        3.6449461223       17.4460361984
  O        -0.1883168466        9.0286677828       19.0824041252
  H        -0.6397470330        8.1596783486       18.8888110791
  H         0.5758093380        8.9916858429       18.5177283104
  O         7.3541377653        2.1912648044       16.6657844956
  H         6.7521113510        3.0058399815       16.6650382694
  H         7.8155898671        2.2651085127       17.5519796945
  O         4.5199339190        5.9587001150       12.7625132061
  H         3.7676184245        5.3276729283       12.6734037066
  H         4.0311551667        6.7985167506       12.9023618741
  O         0.3929473368        3.0727401233       16.2561307079
  H         1.1455873328        2.5335551046       16.0378571755
  H        -0.3154479622        2.4166349413       16.2016454216
  O         0.5605143713        5.9581259982       16.8496527347
  H         1.3239646474        6.3440110211       17.2827914448
  H         0.5691071315        5.0127271356       17.1431423246
  O         8.9639063224        4.8064924680       18.2294992887
  H         8.0756072045        4.6217994930       18.4511004531
  H         9.2322546479        3.9349529715       18.0498960959
      56
Lattice="11.540      0.000      0.000      0.000     11.540      0.000      0.000      0.000     35.000" Properties="species:S:1:pos:R:3" Step=30 Time=30.000 Energy=-1226.1088316042
 Au         0.0000000000        0.0000000000       10.0000000000
 Au         2.8800000000        0.0000000000       10.0000000000
 Au         5.7700000000        0.0000000000       10.0000000000
 Au         8.6500000000        0.0000000000       10.0000000000
 Au         0.0000000000        2.8800000000       10.0000000000
 Au         2.8800000000        2.8800000000       10.0000000000
 Au         5.7700000000        2.8800000000       10.0000000000
 Au         8.6500000000        2.8800000000       10.0000000000
 Au         0.0000000000        5.7700000000       10.0000000000
 Au         2.8800000000        5.7700000000       10.0000000000
 Au         5.7700000000        5.7700000000       10.0000000000
 Au         8.6500000000        5.7700000000       10.0000000000
 Au         0.0000000000        8.6500000000       10.0000000000
 Au         2.8800000000        8.6500000000       10.0000000000
 Au         5.7700000000        8.6500000000       10.0000000000
 Au         8.6500000000        8.6500000000       10.0000000000
 Ne         0.0000000000        0.0000000000       25.0000000000
 Ne         3.1300000000        0.0000000000       25.0000000000
 Ne         6.2600000000        0.0000000000       25.0000000000
 Ne         9.4000000000        0.0000000000       25.0000000000
 Ne         0.0000000000        3.1300000000       25.0000000000
 Ne         3.1300000000        3.1300000000       25.0000000000
 Ne         6.2600000000        3.1300000000       25.0000000000
 Ne         9.4000000000        3.1300000000       25.0000000000
 Ne         0.0000000000        6.2600000000       25.0000000000
 Ne         3.1300000000        6.2600000000       25.0000000000
 Ne         6.2600000000        6.2600000000       25.0000000000
 Ne         9.4000000000        6.2600000000       25.0000000000
 Ne         0.0000000000        9.4000000000       25.0000000000
 Ne         3.1300000000        9.4000000000       25.0000000000
 Ne         6.2600000000        9.4000000000       25.0000000000
 Ne         9.4000000000        9.4000000000       25.0000000000
  O         1.4944590482       10.4727805950       16.9259933178
  H         1.7446749513       10.1062393257       16.0820697784
  H         1.3729292486       11.3712175140       16.6476000698
  O         5.9660624516        4.1977431556       17.3491392727
  H         5.6504843454        5.0837409591       17.1867516453
  H         5.1662035459        3.6861321209       17.4508652326
  O        -0.1969489970        9.0274392247       19.0906050638
  H        -0.6071174403        8.1820655889       18.8534671909
  H         0.5544535225        9.0235528261       18.4766387412
  O         7.3596273414        2.1882676621       16.6632402680
  H         6.7562249993        2.9928691888       16.6681061626
  H         7.8179972544        2.2968695005       17.5207725289
  O         4.5159581540        5.9578558706       12.7644185207
  H         3.7564238349        5.3514650511       12.7135913010
  H         4.0454454950        6.7863628287       12.8625030364
  O         0.3986416183        3.0693454264       16.2634140471
  H         1.1367634296        2.5093385112       16.0366746720
  H        -0.3167846480        2.4495179968       16.1873865379
  O         0.5631475419        5.9579877811       16.8490571327
  H         1.3147624567        6.3318392944       17.3157453962
  H         0.5862999617        5.0284054377       17.1119009297
  O         8.9561401129        4.8073895954       18.2290707251
  H         8.0690471885        4.6539480183       18.4560755162
  H         9.2226968067        3.9319769953       18.0273963731
      56
Lattice="11.540      0.000      0.000      0.000     11.540      0.000      0.000      0.000     35.000" Properties="species:S:1:pos:R:3" Step=31 Time=31.000 Energy=-1226.0454695282
 Au         0.0000000000        0.0000000000       10.0000000000
 Au         2.8800000000        0.0000000000       10.0000000000
 Au         5.7700000000        0.0000000000       10.0000000000
 Au         8.6500000000        0.0000000000       10.0000000000
 Au         0.0000000000        2.8800000000       10.0000000000
 Au         2.8800000000        2.8800000000       10.0000000000
 Au         5.7700000000        2.8800000000       10.0000000000
 Au         8.6500000000        2.8800000000       10.0000000000
 Au         0.0000000000        5.7700000000       10.0000000000
 Au         2.8800000000        5.7700000000       10.0000000000
 Au         5.7700000000        5.7700000000       10.0000000000
 Au         8.6500000000        5.7700000000       10.0000000000
 Au         0.0000000000        8.6500000000       10.0000000000
 Au         2.8800000000        8.6500000000       10.0000000000
 Au         5.7700000000        8.6500000000       10.0000000000
 Au         8.6500000000        8.6500000000       10.0000000000
 Ne         0.0000000000        0.0000000000       25.0000000000
 Ne         3.1300000000        0.0000000000       25.0000000000
 Ne         6.2600000000        0.0000000000       25.0000000000
 Ne         9.4000000000        0.0000000000       25.0000000000
 Ne         0.0000000000        3.1300000000       25.0000000000
 Ne         3.1300000000        3.1300000000       25.0000000000
 Ne         6.2600000000        3.1300000000       25.0000000000
 Ne         9.4000000000        3.1300000000       25.0000000000
 Ne         0.0000000000        6.2600000000       25.0000000000
 Ne         3.1300000000        6.2600000000       25.0000000000
 Ne         6.2600000000        6.2600000000       25.0000000000
 Ne         9.4000000000        6.2600000000       25.0000000000
 Ne         0.0000000000        9.4000000000       25.0000000000
 Ne         3.1300000000        9.4000000000       25.0000000000
 Ne         6.2600000000        9.4000000000       25.0000000000
 Ne         9.4000000000        9.4000000000       25.0000000000
  O         1.5011410339       10.4691056993       16.9240890017
  H         1.7428292178       10.1009207987       16.0820761227
  H         1.3698464294       11.3762325129       16.6437310363
  O         5.9679946137        4.2011326132       17.3562787794
  H         5.6442736764        5.0894359031       17.1715659635
  H         5.1569361212        3.7207019588       17.4586486962
  O        -0.2053778256        9.0264292254       19.0987555552
  H        -0.5805091231        8.1991782340       18.8185088813
  H         0.5367894971        9.0614213442       18.4335401881
  O         7.3650154119        2.1853146541       16.6605473589
  H         6.7679887946        2.9745543939       16.6683108353
  H         7.8189842196        2.3256141481       17.4899278843
  O         4.5123344693        5.9564289923       12.7663062226
  H         3.7444410660        5.3706779540       12.7527179863
  H         4.0578970710        6.7850123681       12.8243177890
  O         0.4045471817        3.0665903095       16.2709807593
  H         1.1385808598        2.4806376292       16.0331717427
  H        -0.3314297884        2.4767203262       16.1715329492
  O         0.5654225525        5.9579657433       16.8482909619
  H         1.3118254950        6.3231177640       17.3531747674
  H         0.6017827189        5.0361338217       17.0792462092
  O         8.9493462265        4.8093025793       18.2287748616
  H         8.0345959469        4.6868297353       18.4696314581
  H         9.2237453994        3.9111712739       17.9988451157
      56
Lattice="11.540      0.000      0.000      0.000     11.540      0.000      0.000      0.000     35.000" Properties="species:S:1:pos:R:3" Step=32 Time=32.000 Energy=-1225.9808162330
 Au         0.0000000000        0.0000000000       10.0000000000
 Au         2.8800000000        0.0000000000       10.0000000000
 Au         5.7700000000        0.0000000000       10.0000000000
 Au         8.6500000000        0.0000000000       10.0000000000
 Au         0.0000000000        2.8800000000       10.0000000000
 Au         2.8800000000        2.8800000000       10.0000000000
 Au         5.7700000000        2.8800000000       10.0000000000
 Au         8.6500000000        2.8800000000       10.0000000000
 Au         0.0000000000        5.7700000000       10.0000000000
 Au         2.8800000000        5.7700000000       10.0000000000
 Au         5.7700000000        5.7700000000       10.0000000000
 Au         8.6500000000        5.7700000000       10.0000000000
 Au         0.0000000000        8.6500000000       10.0000000000
 Au         2.8800000000        8.6500000000       10.0000000000
 Au         5.7700000000        8.6500000000       10.0000000000
 Au         8.6500000000        8.6500000000       10.0000000000
 Ne         0.0000000000        0.0000000000       25.0000000000
 Ne         3.1300000000        0.0000000000       25.0000000000
 Ne         6.2600000000        0.0000000000       25.0000000000
 Ne         9.4000000000        0.0000000000       25.0000000000
 Ne         0.0000000000        3.1300000000       25.0000000000
 Ne         3.1300000000        3.1300000000       25.0000000000
 Ne         6.2600000000        3.1300000000       25.0000000000
 Ne         9.4000000000        3.1300000000       25.0000000000
 Ne         0.0000000000        6.2600000000       25.0000000000
 Ne         3.1300000000        6.2600000000       25.0000000000
 Ne         6.2600000000        6.2600000000       25.0000000000
 Ne         9.4000000000        6.2600000000       25.0000000000
 Ne         0.0000000000        9.4000000000       25.0000000000
 Ne         3.1300000000        9.4000000000       25.0000000000
 Ne         6.2600000000        9.4000000000       25.0000000000
 Ne         9.4000000000        9.4000000000       25.0000000000
  O         1.5077879263       10.4653361824       16.9227906190
  H         1.7458396616       10.0849448082       16.0699207605
  H         1.3630195585       11.3912164404       16.6418170584
  O         5.9701576604        4.2050032817       17.3633173526
  H         5.6384560025        5.1043066481       17.1544602685
  H         5.1338858889        3.7463735697       17.4697844713
  O        -0.2127784041        9.0261394879       19.1064422408
  H        -0.5646286073        8.2023123636       18.7835529918
  H         0.5152006712        9.1056902064       18.3955792916
  O         7.3701573113        2.1820906445       16.6571898347
  H         6.7820152055        2.9549643266       16.6644064371
  H         7.8248467951        2.3529471316       17.4680324989
  O         4.5093389447        5.9542364723       12.7681625925
  H         3.7295213607        5.3814739028       12.7920356914
  H         4.0667623690        6.8005395231       12.7862163687
  O         0.4110442189        3.0642793132       16.2787041755
  H         1.1448645919        2.4522893902       16.0293623177
  H        -0.3602042189        2.4972330718       16.1538531044
  O         0.5676487426        5.9586889294       16.8474404361
  H         1.3107530709        6.3160338971       17.3907928572
  H         0.6158425920        5.0272044946       17.0483695458
  O         8.9431178630        4.8112845022       18.2286072655
  H         7.9870908116        4.7191180830       18.4876401920
  H         9.2280142978        3.8864464910       17.9696652740
      56
Lattice="11.540      0.000      0.000      0.000     11.540      0.000      0.000      0.000     35.000" Properties="species:S:1:pos:R:3" Step=33 Time=33.000 Energy=-1225.9137815450
 Au         0.0000000000        0.0000000000       10.0000000000
 Au         2.8800000000        0.0000000000       10.0000000000
 Au         5.7700000000        0.0000000000       10.0000000000
 Au         8.6500000000        0.0000000000       10.0000000000
 Au         0.0000000000        2.8800000000       10.0000000000
 Au         2.8800000000        2.8800000000       10.0000000000
 Au         5.7700000000        2.8800000000       10.0000000000
 Au         8.6500000000        2.8800000000       10.0000000000
 Au         0.0000000000        5.7700000000       10.0000000000
 Au         2.8800000000        5.7700000000       10.0000000000
 Au         5.7700000000        5.7700000000       10.0000000000
 Au         8.6500000000        5.7700000000       10.0000000000
 Au         0.0000000000        8.6500000000       10.0000000000
 Au         2.8800000000        8.6500000000       10.0000000000
 Au         5.7700000000        8.6500000000       10.0000000000
 Au         8.6500000000        8.6500000000       10.0000000000
 Ne         0.0000000000        0.0000000000       25.0000000000
 Ne         3.1300000000        0.0000000000       25.0000000000
 Ne         6.2600000000        0.0000000000       25.0000000000
 Ne         9.4000000000        0.0000000000       25.0000000000
 Ne         0.0000000000        3.1300000000       25.0000000000
 Ne         3.1300000000        3.1300000000       25.0000000000
 Ne         6.2600000000        3.1300000000       25.0000000000
 Ne         9.4000000000        3.1300000000       25.0000000000
 Ne         0.0000000000        6.2600000000       25.0000000000
 Ne         3.1300000000        6.2600000000       25.0000000000
 Ne         6.2600000000        6.2600000000       25.0000000000
 Ne         9.4000000000        6.2600000000       25.0000000000
 Ne         0.0000000000        9.4000000000       25.0000000000
 Ne         3.1300000000        9.4000000000       25.0000000000
 Ne         6.2600000000        9.4000000000       25.0000000000
 Ne         9.4000000000        9.4000000000       25.0000000000
  O         1.5144934629       10.4619236452       16.9213939666
  H         1.7511715509       10.0638482442       16.0539179607
  H         1.3542494000       11.4034274537       16.6446749021
  O         5.9717851645        4.2096876290       17.3701525946
  H         5.6373384222        5.1190745700       17.1367943837
  H         5.1056208192        3.7659461771       17.4834273951
  O        -0.2187972316        9.0263799738       19.1130763843
  H        -0.5581352403        8.1939253971       18.7490723338
  H         0.4837971267        9.1560444570       18.3698634074
  O         7.3751346629        2.1783544401       16.6531068276
  H         6.7935964503        2.9382472861       16.6550491843
  H         7.8381536478        2.3785475138       17.4573948036
  O         4.5065347925        5.9515691348       12.7700203270
  H         3.7148732556        5.3857428231       12.8301097409
  H         4.0757831723        6.8269074157       12.7471165726
  O         0.4180266191        3.0616113712       16.2863195948
  H         1.1467101422        2.4313145609       16.0282412748
  H        -0.3944229690        2.5170956127       16.1362134851
  O         0.5703120304        5.9601083528       16.8469395619
  H         1.3044361656        6.3072610324       17.4249835812
  H         0.6280995359        5.0058661694       17.0177597864
  O         8.9366230065        4.8123280515       18.2286322503
  H         7.9494642350        4.7504630027       18.5031133977
  H         9.2279370315        3.8736783936       17.9442936860
      56
Lattice="11.540      0.000      0.000      0.000     11.540      0.000      0.000      0.000     35.000" Properties="species:S:1:pos:R:3" Step=34 Time=34.000 Energy=-1225.8472339829
 Au         0.0000000000        0.0000000000       10.0000000000
 Au         2.8800000000        0.0000000000       10.0000000000
 Au         5.7700000000        0.0000000000       10.0000000000
 Au         8.6500000000        0.0000000000       10.0000000000
 Au         0.0000000000        2.8800000000       10.0000000000
 Au         2.8800000000        2.8800000000       10.0000000000
 Au         5.7700000000        2.8800000000       10.0000000000
 Au         8.6500000000        2.8800000000       10.0000000000
 Au         0.0000000000        5.7700000000       10.0000000000
 Au         2.8800000000        5.7700000000       10.0000000000
 Au         5.7700000000        5.7700000000       10.0000000000
 Au         8.6500000000        5.7700000000       10.0000000000
 Au         0.0000000000        8.6500000000       10.0000000000
 Au         2.8800000000        8.6500000000       10.0000000000
 Au         5.7700000000        8.6500000000       10.0000000000
 Au         8.6500000000        8.6500000000       10.0000000000
 Ne         0.0000000000        0.0000000000       25.0000000000
 Ne         3.1300000000        0.0000000000       25.0000000000
 Ne         6.2600000000        0.0000000000       25.0000000000
 Ne         9.4000000000        0.0000000000       25.0000000000
 Ne         0.0000000000        3.1300000000       25.0000000000
 Ne         3.1300000000        3.1300000000       25.0000000000
 Ne         6.2600000000        3.1300000000       25.0000000000
 Ne         9.4000000000        3.1300000000       25.0000000000
 Ne         0.0000000000        6.2600000000       25.0000000000
 Ne         3.1300000000        6.2600000000       25.0000000000
 Ne         6.2600000000        6.2600000000       25.0000000000
 Ne         9.4000000000        6.2600000000       25.0000000000
 Ne         0.0000000000        9.4000000000       25.0000000000
 Ne         3.1300000000        9.4000000000       25.0000000000
 Ne         6.2600000000        9.4000000000       25.0000000000
 Ne         9.4000000000        9.4000000000       25.0000000000
  O         1.5213557577       10.4588479929       16.9196232704
  H         1.7572511290       10.0418053359       16.0393115504
  H         1.3444920830       11.4089094925       16.6517369196
  O         5.9724913016        4.2151077781       17.3768040761
  H         5.6420443147        5.1310299534       17.1184754479
  H         5.0783757064        3.7810093181       17.4991506016
  O        -0.2236768257        9.0268975406       19.1185832696
  H        -0.5585908874        8.1776807640       18.7156042256
  H         0.4442535539        9.2127277579       18.3577249799
  O         7.3802877291        2.1735751372       16.6482717660
  H         6.7957783929        2.9331868359       16.6399500070
  H         7.8601420581        2.4017071323       17.4593802607
  O         4.5037709664        5.9488322024       12.7718745282
  H         3.7001394461        5.3845752425       12.8678142785
  H         4.0872856505        6.8580130046       12.7083326980
  O         0.4250680414        3.0583879857       16.2937235391
  H         1.1429023932        2.4170985404       16.0299093654
  H        -0.4267049403        2.5396638076       16.1200258182
  O         0.5734246292        5.9619138975       16.8468502988
  H         1.2929564703        6.2966698716       17.4560541053
  H         0.6383827508        4.9778830968       16.9851496538
  O         8.9295972295        4.8123368875       18.2288911419
  H         7.9282259639        4.7801859676       18.5125386519
  H         9.2205709715        3.8766660338       17.9236433663
      56
Lattice="11.540      0.000      0.000      0.000     11.540      0.000      0.000      0.000     35.000" Properties="species:S:1:pos:R:3" Step=35 Time=35.000 Energy=-1225.7874011974
 Au         0.0000000000        0.0000000000       10.0000000000
 Au         2.8800000000        0.0000000000       10.0000000000
 Au         5.7700000000        0.0000000000       10.0000000000
 Au         8.6500000000        0.0000000000       10.0000000000
 Au         0.0000000000        2.8800000000       10.0000000000
 Au         2.8800000000        2.8800000000       10.0000000000
 Au         5.7700000000        2.8800000000       10.0000000000
 Au         8.6500000000        2.8800000000       10.0000000000
 Au         0.0000000000        5.7700000000       10.0000000000
 Au         2.8800000000        5.7700000000       10.0000000000
 Au         5.7700000000        5.7700000000       10.0000000000
 Au         8.6500000000        5.7700000000       10.0000000000
 Au         0.0000000000        8.6500000000       10.0000000000
 Au         2.8800000000        8.6500000000       10.0000000000
 Au         5.7700000000        8.6500000000       10.0000000000
 Au         8.6500000000        8.6500000000       10.0000000000
 Ne         0.0000000000        0.0000000000       25.0000000000
 Ne         3.1300000000        0.0000000000       25.0000000000
 Ne         6.2600000000        0.0000000000       25.0000000000
 Ne         9.4000000000        0.0000000000       25.0000000000
 Ne         0.0000000000        3.1300000000       25.0000000000
 Ne         3.1300000000        3.1300000000       25.0000000000
 Ne         6.2600000000        3.1300000000       25.0000000000
 Ne         9.4000000000        3.1300000000       25.0000000000
 Ne         0.0000000000        6.2600000000       25.0000000000
 Ne         3.1300000000        6.2600000000       25.0000000000
 Ne         6.2600000000        6.2600000000       25.0000000000
 Ne         9.4000000000        6.2600000000       25.0000000000
 Ne         0.0000000000        9.4000000000       25.0000000000
 Ne         3.1300000000        9.4000000000       25.0000000000
 Ne         6.2600000000        9.4000000000       25.0000000000
 Ne         9.4000000000        9.4000000000       25.0000000000
  O         1.5284867457       10.4561730657       16.9168006497
  H         1.7611879511       10.0242449612       16.0368190355
  H         1.3355665795       11.4003446864       16.6635837025
  O         5.9713993847        4.2213348714       17.3832963965
  H         5.6552868132        5.1325258315       17.1012212440
  H         5.0627988134        3.7968399600       17.5162902386
  O        -0.2277306166        9.0268646378       19.1224079544
  H        -0.5601137768        8.1666752304       18.6911729264
  H         0.3938684591        9.2729746460       18.3624035006
  O         7.3859293239        2.1681376612       16.6434589865
  H         6.7909727567        2.9362587772       16.6194805573
  H         7.8846045530        2.4192678972       17.4617729689
  O         4.5002884491        5.9465658704       12.7737088570
  H         3.6913322594        5.3845053169       12.9055130356
  H         4.1058416653        6.8791837341       12.6693607704
  O         0.4316067897        3.0541104014       16.3006257166
  H         1.1297198615        2.4111127753       16.0352775102
  H        -0.4441890049        2.5716245433       16.1072679593
  O         0.5772955876        5.9632965772       16.8475302171
  H         1.2727165753        6.2826239961       17.4791019619
  H         0.6454443967        4.9577941905       16.9484348646
  O         8.9217368090        4.8111590629       18.2294208519
  H         7.9313814794        4.8061944316       18.5127463519
  H         9.2027888670        3.8995002158       17.9100591669
      56
Lattice="11.540      0.000      0.000      0.000     11.540      0.000      0.000      0.000     35.000" Properties="species:S:1:pos:R:3" Step=36 Time=36.000 Energy=-1225.7326072694
 Au         0.0000000000        0.0000000000       10.0000000000
 Au         2.8800000000        0.0000000000       10.0000000000
 Au         5.7700000000        0.0000000000       10.0000000000
 Au         8.6500000000        0.0000000000       10.0000000000
 Au         0.0000000000        2.8800000000       10.0000000000
 Au         2.8800000000        2.8800000000       10.0000000000
 Au         5.7700000000        2.8800000000       10.0000000000
 Au         8.6500000000        2.8800000000       10.0000000000
 Au         0.0000000000        5.7700000000       10.0000000000
 Au         2.8800000000        5.7700000000       10.0000000000
 Au         5.7700000000        5.7700000000       10.0000000000
 Au         8.6500000000        5.7700000000       10.0000000000
 Au         0.0000000000        8.6500000000       10.0000000000
 Au         2.8800000000        8.6500000000       10.0000000000
 Au         5.7700000000        8.6500000000       10.0000000000
 Au         8.6500000000        8.6500000000       10.0000000000
 Ne         0.0000000000        0.0000000000       25.0000000000
 Ne         3.1300000000        0.0000000000       25.0000000000
 Ne         6.2600000000        0.0000000000       25.0000000000
 Ne         9.4000000000        0.0000000000       25.0000000000
 Ne         0.0000000000        3.1300000000       25.0000000000
 Ne         3.1300000000        3.1300000000       25.0000000000
 Ne         6.2600000000        3.1300000000       25.0000000000
 Ne         9.4000000000        3.1300000000       25.0000000000
 Ne         0.0000000000        6.2600000000       25.0000000000
 Ne         3.1300000000        6.2600000000       25.0000000000
 Ne         6.2600000000        6.2600000000       25.0000000000
 Ne         9.4000000000        6.2600000000       25.0000000000
 Ne         0.0000000000        9.4000000000       25.0000000000
 Ne         3.1300000000        9.4000000000       25.0000000000
 Ne         6.2600000000        9.4000000000       25.0000000000
 Ne         9.4000000000        9.4000000000       25.0000000000
  O         1.5359211620       10.4536510460       16.9129009723
  H         1.7622349090       10.0127328536       16.0484258500
  H         1.3279441855       11.3791027949       16.6785401411
  O         5.9683500421        4.2282431752       17.3897336200
  H         5.6769879022        5.1240061609       17.0857155085
  H         5.0619694104        3.8155385892       17.5350468385
  O        -0.2314317570        9.0258736699       19.1246292079
  H        -0.5594465492        8.1672911798       18.6793137659
  H         0.3378174755        9.3374297635       18.3797256128
  O         7.3921740578        2.1624536056       16.6390952991
  H         6.7832476857        2.9422698736       16.5959672197
  H         7.9061971560        2.4300833216       17.4565982190
  O         4.4958712738        5.9450159027       12.7755309752
  H         3.6901024382        5.3888883402       12.9407642471
  H         4.1313453472        6.8828725292       12.6313865783
  O         0.4372250784        3.0489711390       16.3070006358
  H         1.1098650721        2.4097887022       16.0427031231
  H        -0.4439527451        2.6139289791       16.0980383076
  O         0.5818253863        5.9637652584       16.8488677562
  H         1.2454579410        6.2664777987       17.4956524171
  H         0.6488980314        4.9514887052       16.9092108546
  O         8.9131992500        4.8092772057       18.2302758331
  H         7.9562629715        4.8260385773       18.5042051831
  H         9.1754639029        3.9358282465       17.9027758068
      56
Lattice="11.540      0.000      0.000      0.000     11.540      0.000      0.000      0.000     35.000" Properties="species:S:1:pos:R:3" Step=37 Time=37.000 Energy=-1225.6729544590
 Au         0.0000000000        0.0000000000       10.0000000000
 Au         2.8800000000        0.0000000000       10.0000000000
 Au         5.7700000000        0.0000000000       10.0000000000
 Au         8.6500000000        0.0000000000       10.0000000000
 Au         0.0000000000        2.8800000000       10.0000000000
 Au         2.8800000000        2.8800000000       10.0000000000
 Au         5.7700000000        2.8800000000       10.0000000000
 Au         8.6500000000        2.8800000000       10.0000000000
 Au         0.0000000000        5.7700000000       10.0000000000
 Au         2.8800000000        5.7700000000       10.0000000000
 Au         5.7700000000        5.7700000000       10.0000000000
 Au         8.6500000000        5.7700000000       10.0000000000
 Au         0.0000000000        8.6500000000       10.0000000000
 Au         2.8800000000        8.6500000000       10.0000000000
 Au         5.7700000000        8.6500000000       10.0000000000
 Au         8.6500000000        8.6500000000       10.0000000000
 Ne         0.0000000000        0.0000000000       25.0000000000
 Ne         3.1300000000        0.0000000000       25.0000000000
 Ne         6.2600000000        0.0000000000       25.0000000000
 Ne         9.4000000000        0.0000000000       25.0000000000
 Ne         0.0000000000        3.1300000000       25.0000000000
 Ne         3.1300000000        3.1300000000       25.0000000000
 Ne         6.2600000000        3.1300000000       25.0000000000
 Ne         9.4000000000        3.1300000000       25.0000000000
 Ne         0.0000000000        6.2600000000       25.0000000000
 Ne         3.1300000000        6.2600000000       25.0000000000
 Ne         6.2600000000        6.2600000000       25.0000000000
 Ne         9.4000000000        6.2600000000       25.0000000000
 Ne         0.0000000000        9.4000000000       25.0000000000
 Ne         3.1300000000        9.4000000000       25.0000000000
 Ne         6.2600000000        9.4000000000       25.0000000000
 Ne         9.4000000000        9.4000000000       25.0000000000
  O         1.5436488427       10.4507698800       16.9085204244
  H         1.7618529858       10.0049061583       16.0671074337
  H         1.3201667899       11.3558090359       16.6934854261
  O         5.9639003117        4.2353626954       17.3962902256
  H         5.7045263045        5.1137616075       17.0705486657
  H         5.0714903097        3.8361829905       17.5559842257
  O        -0.2352803531        9.0238928272       19.1259488268
  H        -0.5560733669        8.1784433294       18.6783241128
  H         0.2826192063        9.4061881543       18.3992571365
  O         7.3989510929        2.1567414436       16.6351662388
  H         6.7759049674        2.9473716653       16.5719234958
  H         7.9223613045        2.4349477978       17.4429194297
  O         4.4908501785        5.9440903853       12.7773266819
  H         3.6932237251        5.3969241640       12.9738415617
  H         4.1605744206        6.8712935599       12.5964870216
  O         0.4417691028        3.0437914030       16.3131299076
  H         1.0922294660        2.4047299413       16.0482256898
  H        -0.4322914886        2.6606094323       16.0904448746
  O         0.5865608327        5.9632186731       16.8503266104
  H         1.2176681133        6.2516857382       17.5133671967
  H         0.6492840214        4.9571147248       16.8674210757
  O         8.9045848587        4.8077595293       18.2315646114
  H         7.9890587052        4.8395838963       18.4913619281
  H         9.1446862836        3.9704762302       17.8963423616
      56
Lattice="11.540      0.000      0.000      0.000     11.540      0.000      0.000      0.000     35.000" Properties="species:S:1:pos:R:3" Step=38 Time=38.000 Energy=-1225.6067555349
 Au         0.0000000000        0.0000000000       10.0000000000
 Au         2.8800000000        0.0000000000       10.0000000000
 Au         5.7700000000        0.0000000000       10.0000000000
 Au         8.6500000000        0.0000000000       10.0000000000
 Au         0.0000000000        2.8800000000       10.0000000000
 Au         2.8800000000        2.8800000000       10.0000000000
 Au         5.7700000000        2.8800000000       10.0000000000
 Au         8.6500000000        2.8800000000       10.0000000000
 Au         0.0000000000        5.7700000000       10.0000000000
 Au         2.8800000000        5.7700000000       10.0000000000
 Au         5.7700000000        5.7700000000       10.0000000000
 Au         8.6500000000        5.7700000000       10.0000000000
 Au         0.0000000000        8.6500000000       10.0000000000
 Au         2.8800000000        8.6500000000       10.0000000000
 Au         5.7700000000        8.6500000000       10.0000000000
 Au         8.6500000000        8.6500000000       10.0000000000
 Ne         0.0000000000        0.0000000000       25.0000000000
 Ne         3.1300000000        0.0000000000       25.0000000000
 Ne         6.2600000000        0.0000000000       25.0000000000
 Ne         9.4000000000        0.0000000000       25.0000000000
 Ne         0.0000000000        3.1300000000       25.0000000000
 Ne         3.1300000000        3.1300000000       25.0000000000
 Ne         6.2600000000        3.1300000000       25.0000000000
 Ne         9.4000000000        3.1300000000       25.0000000000
 Ne         0.0000000000        6.2600000000       25.0000000000
 Ne         3.1300000000        6.2600000000       25.0000000000
 Ne         6.2600000000        6.2600000000       25.0000000000
 Ne         9.4000000000        6.2600000000       25.0000000000
 Ne         0.0000000000        9.4000000000       25.0000000000
 Ne         3.1300000000        9.4000000000       25.0000000000
 Ne         6.2600000000        9.4000000000       25.0000000000
 Ne         9.4000000000        9.4000000000       25.0000000000
  O         1.5516031068       10.4471755784       16.9042504332
  H         1.7616756042        9.9978951200       16.0850803924
  H         1.3106365283       11.3404138007       16.7062224890
  O         5.9586496337        4.2422998529       17.4030991704
  H         5.7346678483        5.1086610899       17.0541138077
  H         5.0861901773        3.8574298631       17.5789062104
  O        -0.2394984544        9.0210210379       19.1269186300
  H        -0.5501698495        8.1975428984       18.6855662746
  H         0.2326212544        9.4805199328       18.4142509445
  O         7.4060571810        2.1513396158       16.6315780570
  H         6.7735544352        2.9460774994       16.5483875168
  H         7.9318024155        2.4345421733       17.4215722058
  O         4.4855041434        5.9435273172       12.7791339456
  H         3.6986843998        5.4083311309       13.0062286234
  H         4.1913737532        6.8495039435       12.5634078401
  O         0.4454730826        3.0391792466       16.3193047270
  H         1.0826903804        2.3905269252       16.0493038373
  H        -0.4176164624        2.7080178398       16.0819987098
  O         0.5912139182        5.9617153553       16.8514930890
  H         1.1946377969        6.2397886705       17.5382447881
  H         0.6473218246        4.9723286470       16.8242206016
  O         8.8967535391        4.8076131131       18.2333802273
  H         8.0117144599        4.8483572453       18.4805070527
  H         9.1167265789        3.9865750843       17.8840757709
      56
Lattice="11.540      0.000      0.000      0.000     11.540      0.000      0.000      0.000     35.000" Properties="species:S:1:pos:R:3" Step=39 Time=39.000 Energy=-1225.5419100101
 Au         0.0000000000        0.0000000000       10.0000000000
 Au         2.8800000000        0.0000000000       10.0000000000
 Au         5.7700000000        0.0000000000       10.0000000000
 Au         8.6500000000        0.0000000000       10.0000000000
 Au         0.0000000000        2.8800000000       10.0000000000
 Au         2.8800000000        2.8800000000       10.0000000000
 Au         5.7700000000        2.8800000000       10.0000000000
 Au         8.6500000000        2.8800000000       10.0000000000
 Au         0.0000000000        5.7700000000       10.0000000000
 Au         2.8800000000        5.7700000000       10.0000000000
 Au         5.7700000000        5.7700000000       10.0000000000
 Au         8.6500000000        5.7700000000       10.0000000000
 Au         0.0000000000        8.6500000000       10.0000000000
 Au         2.8800000000        8.6500000000       10.0000000000
 Au         5.7700000000        8.6500000000       10.0000000000
 Au         8.6500000000        8.6500000000       10.0000000000
 Ne         0.0000000000        0.0000000000       25.0000000000
 Ne         3.1300000000        0.0000000000       25.0000000000
 Ne         6.2600000000        0.0000000000       25.0000000000
 Ne         9.4000000000        0.0000000000       25.0000000000
 Ne         0.0000000000        3.1300000000       25.0000000000
 Ne         3.1300000000        3.1300000000       25.0000000000
 Ne         6.2600000000        3.1300000000       25.0000000000
 Ne         9.4000000000        3.1300000000       25.0000000000
 Ne         0.0000000000        6.2600000000       25.0000000000
 Ne         3.1300000000        6.2600000000       25.0000000000
 Ne         6.2600000000        6.2600000000       25.0000000000
 Ne         9.4000000000        6.2600000000       25.0000000000
 Ne         0.0000000000        9.4000000000       25.0000000000
 Ne         3.1300000000        9.4000000000       25.0000000000
 Ne         6.2600000000        9.4000000000       25.0000000000
 Ne         9.4000000000        9.4000000000       25.0000000000
  O         1.5596476944       10.4428455031       16.9006553483
  H         1.7633811045        9.9884264343       16.0948440694
  H         1.2985344331       11.3377623541       16.7154026351
  O         5.9533132953        4.2488907640       17.4102018920
  H         5.7641506532        5.1127140306       17.0348552738
  H         5.0986917472        3.8763371213       17.6039077443
  O        -0.2439064089        9.0178035964       19.1278900916
  H        -0.5435182861        8.2185784879       18.6960090050
  H         0.1867009454        9.5591271657       18.4246263339
  O         7.4132290725        2.1464239638       16.6280684434
  H         6.7789715065        2.9353371189       16.5257480400
  H         7.9360786376        2.4303523571       17.3969964356
  O         4.4802062722        5.9428495602       12.7810395733
  H         3.7039864489        5.4225316547       13.0373594193
  H         4.2201798632        6.8268679994       12.5301222413
  O         0.4490757196        3.0353927289       16.3257928648
  H         1.0811056839        2.3670551113       16.0457664475
  H        -0.4108686623        2.7514341497       16.0692849339
  O         0.5957146358        5.9596639815       16.8521996988
  H         1.1781171094        6.2299187213       17.5718213699
  H         0.6441916296        4.9919438093       16.7823466219
  O         8.8906824808        4.8091937874       18.2356256177
  H         8.0052381036        4.8543488360       18.4774985752
  H         9.0930730980        3.9761600224       17.8625143185
      56
Lattice="11.540      0.000      0.000      0.000     11.540      0.000      0.000      0.000     35.000" Properties="species:S:1:pos:R:3" Step=40 Time=40.000 Energy=-1225.4773352459
 Au         0.0000000000        0.0000000000       10.0000000000
 Au         2.8800000000        0.0000000000       10.0000000000
 Au         5.7700000000        0.0000000000       10.0000000000
 Au         8.6500000000        0.0000000000       10.0000000000
 Au         0.0000000000        2.8800000000       10.0000000000
 Au         2.8800000000        2.8800000000       10.0000000000
 Au         5.7700000000        2.8800000000       10.0000000000
 Au         8.6500000000        2.8800000000       10.0000000000
 Au         0.0000000000        5.7700000000       10.0000000000
 Au         2.8800000000        5.7700000000       10.0000000000
 Au         5.7700000000        5.7700000000       10.0000000000
 Au         8.6500000000        5.7700000000       10.0000000000
 Au         0.0000000000        8.6500000000       10.0000000000
 Au         2.8800000000        8.6500000000       10.0000000000
 Au         5.7700000000        8.6500000000       10.0000000000
 Au         8.6500000000        8.6500000000       10.0000000000
 Ne         0.0000000000        0.0000000000       25.0000000000
 Ne         3.1300000000        0.0000000000       25.0000000000
 Ne         6.2600000000        0.0000000000       25.0000000000
 Ne         9.4000000000        0.0000000000       25.0000000000
 Ne         0.0000000000        3.1300000000       25.0000000000
 Ne         3.1300000000        3.1300000000       25.0000000000
 Ne         6.2600000000        3.1300000000       25.0000000000
 Ne         9.4000000000        3.1300000000       25.0000000000
 Ne         0.0000000000        6.2600000000       25.0000000000
 Ne         3.1300000000        6.2600000000       25.0000000000
 Ne         6.2600000000        6.2600000000       25.0000000000
 Ne         9.4000000000        6.2600000000       25.0000000000
 Ne         0.0000000000        9.4000000000       25.0000000000
 Ne         3.1300000000        9.4000000000       25.0000000000
 Ne         6.2600000000        9.4000000000       25.0000000000
 Ne         9.4000000000        9.4000000000       25.0000000000
  O         1.5676315135       10.4381819044       16.8979620248
  H         1.7674763973        9.9755457913       16.0929359282
  H         1.2851274693       11.3438276995       16.7210031838
  O         5.9484588990        4.2553556915       17.4174718747
  H         5.7925646538        5.1236868922       17.0128291111
  H         5.1023785401        3.8905575457       17.6322908309
  O        -0.2480339380        9.0152292632       19.1289671488
  H        -0.5390277648        8.2331087873       18.7027850061
  H         0.1397664133        9.6338341692       18.4362040346
  O         7.4202113412        2.1419734733       16.6242416481
  H         6.7927213508        2.9149520665       16.5050403069
  H         7.9384504055        2.4243277667       17.3743681511
  O         4.4752929117        5.9415862964       12.7831718226
  H         3.7068339532        5.4394970441       13.0664795568
  H         4.2424774457        6.8117274032       12.4962042319
  O         0.4533466354        3.0321630761       16.3326778119
  H         1.0813360408        2.3407083682       16.0399400037
  H        -0.4177003270        2.7879638929       16.0499669657
  O         0.6002654060        5.9577306450       16.8526785918
  H         1.1643444872        6.2187547048       17.6080501619
  H         0.6412657930        5.0089625980       16.7407838553
  O         8.8864797280        4.8117994198       18.2380480644
  H         7.9701052874        4.8581999273       18.4822335220
  H         9.0700122517        3.9502089156       17.8352443485
