72
Au/water/Ne sandwich for thermopotentiostat example - z is surface normal
Au      0.000000    0.000000    2.000000
Au      1.440000    2.494000    2.000000
Au      2.880000    0.000000    2.000000
Au      4.320000    2.494000    2.000000
Au      5.760000    0.000000    2.000000
Au      7.200000    2.494000    2.000000
Au      0.000000    4.988000    2.000000
Au      1.440000    7.482000    2.000000
Au      2.880000    4.988000    2.000000
Au      4.320000    7.482000    2.000000
Au      5.760000    4.988000    2.000000
Au      7.200000    7.482000    2.000000
Au      0.720000    1.247000    4.355000
Au      2.160000    3.741000    4.355000
Au      3.600000    1.247000    4.355000
Au      5.040000    3.741000    4.355000
Au      6.480000    1.247000    4.355000
Au      7.920000    3.741000    4.355000
Au      0.720000    6.235000    4.355000
Au      2.160000    1.247000    4.355000
Au      3.600000    6.235000    4.355000
Au      5.040000    1.247000    4.355000
Au      6.480000    6.235000    4.355000
Au      7.920000    6.235000    4.355000
O       1.500000    1.500000    8.000000
H       2.100000    2.100000    8.300000
H       0.700000    1.800000    8.400000
O       4.500000    1.200000    9.500000
H       4.800000    0.400000    9.100000
H       5.200000    1.800000    9.300000
O       2.000000    5.000000    8.500000
H       2.700000    5.500000    8.200000
H       1.300000    5.600000    8.700000
O       6.000000    4.500000   10.000000
H       6.500000    3.800000    9.600000
H       5.200000    4.100000   10.300000
O       3.500000    3.500000   11.000000
H       4.200000    4.100000   10.700000
H       2.800000    3.900000   11.500000
O       0.800000    6.500000   10.500000
H       1.400000    7.100000   10.200000
H       0.200000    6.200000    9.800000
O       5.500000    6.800000    8.200000
H       6.200000    6.300000    7.800000
H       4.800000    6.200000    8.500000
O       7.500000    2.500000   11.500000
H       8.100000    3.100000   11.200000
H       6.800000    2.900000   12.000000
Ne      0.000000    0.000000   20.000000
Ne      1.540000    2.664000   20.000000
Ne      3.080000    0.000000   20.000000
Ne      4.620000    2.664000   20.000000
Ne      6.160000    0.000000   20.000000
Ne      7.700000    2.664000   20.000000
Ne      0.000000    5.328000   20.000000
Ne      1.540000    7.992000   20.000000
Ne      3.080000    5.328000   20.000000
Ne      4.620000    7.992000   20.000000
Ne      6.160000    5.328000   20.000000
Ne      7.700000    7.992000   20.000000
Ne      0.770000    1.332000   23.000000
Ne      2.310000    3.996000   23.000000
Ne      3.850000    1.332000   23.000000
Ne      5.390000    3.996000   23.000000
Ne      6.930000    1.332000   23.000000
Ne      8.470000    3.996000   23.000000
Ne      0.770000    6.660000   23.000000
Ne      2.310000    1.332000   23.000000
Ne      3.850000    6.660000   23.000000
Ne      5.390000    1.332000   23.000000
Ne      6.930000    6.660000   23.000000
Ne      8.470000    6.660000   23.000000
