32
frame 0 | Written by MDAnalysis XYZWriter (release 2.10.0)
      Au     0.00000    0.00000   10.00000
      Au     2.88000    0.00000   10.00000
      Au     5.77000    0.00000   10.00000
      Au     8.65000    0.00000   10.00000
      Au     0.00000    2.88000   10.00000
      Au     2.88000    2.88000   10.00000
      Au     5.77000    2.88000   10.00000
      Au     8.65000    2.88000   10.00000
      Au     0.00000    5.77000   10.00000
      Au     2.88000    5.77000   10.00000
      Au     5.77000    5.77000   10.00000
      Au     8.65000    5.77000   10.00000
      Au     0.00000    8.65000   10.00000
      Au     2.88000    8.65000   10.00000
      Au     5.77000    8.65000   10.00000
      Au     8.65000    8.65000   10.00000
      Ne     0.00000    0.00000   25.00000
      Ne     3.13000    0.00000   25.00000
      Ne     6.26000    0.00000   25.00000
      Ne     9.40000    0.00000   25.00000
      Ne     0.00000    3.13000   25.00000
      Ne     3.13000    3.13000   25.00000
      Ne     6.26000    3.13000   25.00000
      Ne     9.40000    3.13000   25.00000
      Ne     0.00000    6.26000   25.00000
      Ne     3.13000    6.26000   25.00000
      Ne     6.26000    6.26000   25.00000
      Ne     9.40000    6.26000   25.00000
      Ne     0.00000    9.40000   25.00000
      Ne     3.13000    9.40000   25.00000
      Ne     6.26000    9.40000   25.00000
      Ne     9.40000    9.40000   25.00000
