56
frame 0 | Written by MDAnalysis XYZWriter (release 2.10.0)
      Au     0.00000    0.00000   10.00000
      Au     2.88000    0.00000   10.00000
      Au     5.77000    0.00000   10.00000
      Au     8.65000    0.00000   10.00000
      Au     0.00000    2.88000   10.00000
      Au     2.88000    2.88000   10.00000
      Au     5.77000    2.88000   10.00000
      Au     8.65000    2.88000   10.00000
      Au     0.00000    5.77000   10.00000
      Au     2.88000    5.77000   10.00000
      Au     5.77000    5.77000   10.00000
      Au     8.65000    5.77000   10.00000
      Au     0.00000    8.65000   10.00000
      Au     2.88000    8.65000   10.00000
      Au     5.77000    8.65000   10.00000
      Au     8.65000    8.65000   10.00000
      Ne     0.00000    0.00000   25.00000
      Ne     3.13000    0.00000   25.00000
      Ne     6.26000    0.00000   25.00000
      Ne     9.40000    0.00000   25.00000
      Ne     0.00000    3.13000   25.00000
      Ne     3.13000    3.13000   25.00000
      Ne     6.26000    3.13000   25.00000
      Ne     9.40000    3.13000   25.00000
      Ne     0.00000    6.26000   25.00000
      Ne     3.13000    6.26000   25.00000
      Ne     6.26000    6.26000   25.00000
      Ne     9.40000    6.26000   25.00000
      Ne     0.00000    9.40000   25.00000
      Ne     3.13000    9.40000   25.00000
      Ne     6.26000    9.40000   25.00000
      Ne     9.40000    9.40000   25.00000
      OW     1.34078   10.54789   16.99759
     HW1     1.77054   10.24373   16.14742
     HW2     1.31515   11.54733   17.01913
      OW     5.80233    4.27246   17.22874
     HW1     5.35065    5.15990   17.13688
     HW2     5.11173    3.55325   17.30483
      OW    -0.01150    9.03074   18.92142
     HW1    -0.60036    8.71313   19.66463
     HW2     0.89293    8.61371   19.01132
      OW     7.32553    2.10900   16.70292
     HW1     7.73585    2.99756   16.90812
     HW2     6.95765    1.70981   17.54275
      OW     4.61714    5.92455   12.79027
     HW1     4.35941    5.44568   11.95107
     HW2     3.81915    6.00292   13.38781
      OW     0.22047    3.07883   16.11554
     HW1     1.18599    3.24527   15.91538
     HW2     0.09523    2.12315   16.38198
      OW     0.47667    5.96755   16.86694
     HW1     1.45991    6.14394   16.82097
     HW2     0.32055    5.02580   17.16483
      OW     9.14584    4.75980   18.30493
     HW1     8.28988    4.30001   18.54142
     HW2     9.88180    4.08519   18.24770
